  36  36   0   0
  0.3666455E+02  0.7700375E-09  0.7700375E-09  0.2226000E-08  0.5000000E-15
  1.000000000000000E-004
  CAR 
 unknown system                          
      8.01007243    -10.54277185  301     -0.13243570      1.00000000
    -10.543  0.0000E+00  0.0000E+00
    -10.481  0.0000E+00  0.0000E+00
    -10.419  0.0000E+00  0.0000E+00
    -10.357  0.0000E+00  0.0000E+00
    -10.295  0.0000E+00  0.0000E+00
    -10.234  0.0000E+00  0.0000E+00
    -10.172  0.9049E-26  0.5596E-27
    -10.110  0.1113E-23  0.6942E-25
    -10.048  0.1133E-21  0.7076E-23
     -9.986  0.9462E-20  0.5922E-21
     -9.924  0.6482E-18  0.4068E-19
     -9.863  0.3640E-16  0.2292E-17
     -9.801  0.1674E-14  0.1058E-15
     -9.739  0.6297E-13  0.4000E-14
     -9.677  0.1939E-11  0.1239E-12
     -9.615  0.4862E-10  0.3131E-11
     -9.553  0.9921E-09  0.6448E-10
     -9.491  0.1643E-07  0.1081E-08
     -9.430  0.2202E-06  0.1470E-07
     -9.368  0.2377E-05  0.1617E-06
     -9.306  0.2053E-04  0.1431E-05
     -9.244  0.1405E-03  0.1012E-04
     -9.182  0.7518E-03  0.5662E-04
     -9.120  0.3067E-02  0.2463E-03
     -9.059  0.9076E-02  0.8076E-03
     -8.997  0.1709E-01  0.1865E-02
     -8.935  0.8986E-02  0.2420E-02
     -8.873 -0.5426E-01 -0.9355E-03
     -8.811 -0.1753E+00 -0.1177E-01
     -8.749 -0.1932E+00 -0.2372E-01
     -8.687  0.2174E+00 -0.1028E-01
     -8.626  0.1177E+01  0.6248E-01
     -8.564  0.2156E+01  0.1958E+00
     -8.502  0.2287E+01  0.3373E+00
     -8.440  0.1470E+01  0.4282E+00
     -8.378  0.8750E+00  0.4823E+00
     -8.316  0.1756E+01  0.5908E+00
     -8.255  0.3737E+01  0.8220E+00
     -8.193  0.4924E+01  0.1126E+01
     -8.131  0.4072E+01  0.1378E+01
     -8.069  0.2122E+01  0.1509E+01
     -8.007  0.1010E+01  0.1572E+01
     -7.945  0.1345E+01  0.1655E+01
     -7.884  0.1968E+01  0.1777E+01
     -7.822  0.1764E+01  0.1886E+01
     -7.760  0.1229E+01  0.1962E+01
     -7.698  0.1738E+01  0.2069E+01
     -7.636  0.3440E+01  0.2282E+01
     -7.574  0.4686E+01  0.2572E+01
     -7.512  0.4066E+01  0.2823E+01
     -7.451  0.2433E+01  0.2974E+01
     -7.389  0.1949E+01  0.3094E+01
     -7.327  0.3241E+01  0.3295E+01
     -7.265  0.4593E+01  0.3579E+01
     -7.203  0.4283E+01  0.3844E+01
     -7.141  0.2755E+01  0.4014E+01
     -7.080  0.1655E+01  0.4116E+01
     -7.018  0.1427E+01  0.4205E+01
     -6.956  0.1206E+01  0.4279E+01
     -6.894  0.1075E+01  0.4346E+01
     -6.832  0.2818E+01  0.4520E+01
     -6.770  0.7169E+01  0.4963E+01
     -6.709  0.1137E+02  0.5666E+01
     -6.647  0.1166E+02  0.6387E+01
     -6.585  0.8220E+01  0.6896E+01
     -6.523  0.5152E+01  0.7214E+01
     -6.461  0.5082E+01  0.7529E+01
     -6.399  0.6212E+01  0.7913E+01
     -6.337  0.5789E+01  0.8271E+01
     -6.276  0.4102E+01  0.8525E+01
     -6.214  0.3233E+01  0.8724E+01
     -6.152  0.3558E+01  0.8945E+01
     -6.090  0.3836E+01  0.9182E+01
     -6.028  0.4034E+01  0.9431E+01
     -5.966  0.5570E+01  0.9776E+01
     -5.905  0.8544E+01  0.1030E+02
     -5.843  0.1078E+02  0.1097E+02
     -5.781  0.1025E+02  0.1160E+02
     -5.719  0.7360E+01  0.1206E+02
     -5.657  0.4528E+01  0.1234E+02
     -5.595  0.4234E+01  0.1260E+02
     -5.534  0.6771E+01  0.1302E+02
     -5.472  0.9717E+01  0.1362E+02
     -5.410  0.1053E+02  0.1427E+02
     -5.348  0.9412E+01  0.1485E+02
     -5.286  0.8497E+01  0.1538E+02
     -5.224  0.8880E+01  0.1593E+02
     -5.162  0.9896E+01  0.1654E+02
     -5.101  0.1069E+02  0.1720E+02
     -5.039  0.1126E+02  0.1790E+02
     -4.977  0.1253E+02  0.1867E+02
     -4.915  0.1580E+02  0.1965E+02
     -4.853  0.2140E+02  0.2097E+02
     -4.791  0.2674E+02  0.2263E+02
     -4.730  0.2803E+02  0.2436E+02
     -4.668  0.2558E+02  0.2594E+02
     -4.606  0.2473E+02  0.2747E+02
     -4.544  0.2923E+02  0.2928E+02
     -4.482  0.3643E+02  0.3153E+02
     -4.420  0.4137E+02  0.3409E+02
     -4.358  0.4304E+02  0.3675E+02
     -4.297  0.4466E+02  0.3952E+02
     -4.235  0.5025E+02  0.4262E+02
     -4.173  0.6177E+02  0.4644E+02
     -4.111  0.7662E+02  0.5118E+02
     -4.049  0.8777E+02  0.5661E+02
     -3.987  0.8955E+02  0.6215E+02
     -3.926  0.8331E+02  0.6730E+02
     -3.864  0.7509E+02  0.7194E+02
     -3.802  0.6890E+02  0.7620E+02
     -3.740  0.6465E+02  0.8020E+02
     -3.678  0.6192E+02  0.8403E+02
     -3.616  0.6271E+02  0.8791E+02
     -3.555  0.6851E+02  0.9215E+02
     -3.493  0.7667E+02  0.9689E+02
     -3.431  0.8327E+02  0.1020E+03
     -3.369  0.8913E+02  0.1075E+03
     -3.307  0.9792E+02  0.1136E+03
     -3.245  0.1077E+03  0.1203E+03
     -3.183  0.1103E+03  0.1271E+03
     -3.122  0.1024E+03  0.1334E+03
     -3.060  0.9307E+02  0.1392E+03
     -2.998  0.9709E+02  0.1452E+03
     -2.936  0.1201E+03  0.1526E+03
     -2.874  0.1504E+03  0.1619E+03
     -2.812  0.1666E+03  0.1722E+03
     -2.751  0.1557E+03  0.1818E+03
     -2.689  0.1269E+03  0.1897E+03
     -2.627  0.1042E+03  0.1961E+03
     -2.565  0.1043E+03  0.2026E+03
     -2.503  0.1249E+03  0.2103E+03
     -2.441  0.1506E+03  0.2196E+03
     -2.380  0.1654E+03  0.2298E+03
     -2.318  0.1630E+03  0.2399E+03
     -2.256  0.1511E+03  0.2493E+03
     -2.194  0.1449E+03  0.2582E+03
     -2.132  0.1517E+03  0.2676E+03
     -2.070  0.1631E+03  0.2777E+03
     -2.008  0.1680E+03  0.2881E+03
     -1.947  0.1692E+03  0.2985E+03
     -1.885  0.1787E+03  0.3096E+03
     -1.823  0.1994E+03  0.3219E+03
     -1.761  0.2174E+03  0.3354E+03
     -1.699  0.2167E+03  0.3488E+03
     -1.637  0.1906E+03  0.3606E+03
     -1.576  0.1438E+03  0.3695E+03
     -1.514  0.8963E+02  0.3750E+03
     -1.452  0.4588E+02  0.3778E+03
     -1.390  0.2320E+02  0.3793E+03
     -1.328  0.1813E+02  0.3804E+03
     -1.266  0.1929E+02  0.3816E+03
     -1.205  0.1851E+02  0.3827E+03
     -1.143  0.1479E+02  0.3836E+03
     -1.081  0.1061E+02  0.3843E+03
     -1.019  0.8104E+01  0.3848E+03
     -0.957  0.8196E+01  0.3853E+03
     -0.895  0.1091E+02  0.3860E+03
     -0.833  0.1482E+02  0.3869E+03
     -0.772  0.1749E+02  0.3880E+03
     -0.710  0.1745E+02  0.3891E+03
     -0.648  0.1540E+02  0.3900E+03
     -0.586  0.1326E+02  0.3908E+03
     -0.524  0.1239E+02  0.3916E+03
     -0.462  0.1254E+02  0.3924E+03
     -0.401  0.1240E+02  0.3931E+03
     -0.339  0.1133E+02  0.3938E+03
     -0.277  0.1030E+02  0.3945E+03
     -0.215  0.1034E+02  0.3951E+03
     -0.153  0.1074E+02  0.3958E+03
     -0.091  0.9991E+01  0.3964E+03
     -0.029  0.8537E+01  0.3969E+03
      0.032  0.8926E+01  0.3975E+03
      0.094  0.1247E+02  0.3983E+03
      0.156  0.1685E+02  0.3993E+03
      0.218  0.1843E+02  0.4004E+03
      0.280  0.1631E+02  0.4014E+03
      0.342  0.1272E+02  0.4022E+03
      0.403  0.1004E+02  0.4029E+03
      0.465  0.8986E+01  0.4034E+03
      0.527  0.9107E+01  0.4040E+03
      0.589  0.9688E+01  0.4046E+03
      0.651  0.1019E+02  0.4052E+03
      0.713  0.1052E+02  0.4058E+03
      0.774  0.1104E+02  0.4065E+03
      0.836  0.1205E+02  0.4073E+03
      0.898  0.1343E+02  0.4081E+03
      0.960  0.1486E+02  0.4090E+03
      1.022  0.1590E+02  0.4100E+03
      1.084  0.1586E+02  0.4110E+03
      1.146  0.1414E+02  0.4119E+03
      1.207  0.1095E+02  0.4125E+03
      1.269  0.7289E+01  0.4130E+03
      1.331  0.4458E+01  0.4133E+03
      1.393  0.3942E+01  0.4135E+03
      1.455  0.6510E+01  0.4139E+03
      1.517  0.1067E+02  0.4146E+03
      1.578  0.1308E+02  0.4154E+03
      1.640  0.1161E+02  0.4161E+03
      1.702  0.8011E+01  0.4166E+03
      1.764  0.6650E+01  0.4170E+03
      1.826  0.1024E+02  0.4176E+03
      1.888  0.1679E+02  0.4187E+03
      1.949  0.2155E+02  0.4200E+03
      2.011  0.2159E+02  0.4213E+03
      2.073  0.1740E+02  0.4224E+03
      2.135  0.1104E+02  0.4231E+03
      2.197  0.4917E+01  0.4234E+03
      2.259  0.1821E+01  0.4235E+03
      2.321  0.3561E+01  0.4237E+03
      2.382  0.9249E+01  0.4243E+03
      2.444  0.1599E+02  0.4253E+03
      2.506  0.2100E+02  0.4266E+03
      2.568  0.2242E+02  0.4280E+03
      2.630  0.1937E+02  0.4292E+03
      2.692  0.1282E+02  0.4300E+03
      2.753  0.6131E+01  0.4304E+03
      2.815  0.3268E+01  0.4306E+03
      2.877  0.5912E+01  0.4309E+03
      2.939  0.1236E+02  0.4317E+03
      3.001  0.1884E+02  0.4329E+03
      3.063  0.2161E+02  0.4342E+03
      3.124  0.1891E+02  0.4354E+03
      3.186  0.1284E+02  0.4362E+03
      3.248  0.8602E+01  0.4367E+03
      3.310  0.9790E+01  0.4373E+03
      3.372  0.1466E+02  0.4382E+03
      3.434  0.1880E+02  0.4394E+03
      3.496  0.2037E+02  0.4406E+03
      3.557  0.2037E+02  0.4419E+03
      3.619  0.1927E+02  0.4431E+03
      3.681  0.1658E+02  0.4441E+03
      3.743  0.1354E+02  0.4449E+03
      3.805  0.1346E+02  0.4458E+03
      3.867  0.1851E+02  0.4469E+03
      3.928  0.2698E+02  0.4486E+03
      3.990  0.3332E+02  0.4506E+03
      4.052  0.3189E+02  0.4526E+03
      4.114  0.2271E+02  0.4540E+03
      4.176  0.1263E+02  0.4548E+03
      4.238  0.8786E+01  0.4553E+03
      4.300  0.1167E+02  0.4561E+03
      4.361  0.1580E+02  0.4570E+03
      4.423  0.1606E+02  0.4580E+03
      4.485  0.1231E+02  0.4588E+03
      4.547  0.8686E+01  0.4593E+03
      4.609  0.9102E+01  0.4599E+03
      4.671  0.1329E+02  0.4607E+03
      4.732  0.1727E+02  0.4618E+03
      4.794  0.1778E+02  0.4629E+03
      4.856  0.1527E+02  0.4638E+03
      4.918  0.1275E+02  0.4646E+03
      4.980  0.1251E+02  0.4654E+03
      5.042  0.1411E+02  0.4663E+03
      5.103  0.1499E+02  0.4672E+03
      5.165  0.1374E+02  0.4680E+03
      5.227  0.1259E+02  0.4688E+03
      5.289  0.1527E+02  0.4698E+03
      5.351  0.2174E+02  0.4711E+03
      5.413  0.2704E+02  0.4728E+03
      5.475  0.2660E+02  0.4744E+03
      5.536  0.2118E+02  0.4757E+03
      5.598  0.1517E+02  0.4767E+03
      5.660  0.1155E+02  0.4774E+03
      5.722  0.1017E+02  0.4780E+03
      5.784  0.9573E+01  0.4786E+03
      5.846  0.8563E+01  0.4791E+03
      5.907  0.6666E+01  0.4796E+03
      5.969  0.4265E+01  0.4798E+03
      6.031  0.2171E+01  0.4800E+03
      6.093  0.8338E+00  0.4800E+03
      6.155  0.1648E+00  0.4800E+03
      6.217 -0.8668E-01  0.4800E+03
      6.278 -0.1097E+00  0.4800E+03
      6.340 -0.4766E-01  0.4800E+03
      6.402  0.3444E-02  0.4800E+03
      6.464  0.1802E-01  0.4800E+03
      6.526  0.1284E-01  0.4800E+03
      6.588  0.5579E-02  0.4800E+03
      6.650  0.1732E-02  0.4800E+03
      6.711  0.4062E-03  0.4800E+03
      6.773  0.7397E-04  0.4800E+03
      6.835  0.1063E-04  0.4800E+03
      6.897  0.1218E-05  0.4800E+03
      6.959  0.1120E-06  0.4800E+03
      7.021  0.8319E-08  0.4800E+03
      7.082  0.5005E-09  0.4800E+03
      7.144  0.2446E-10  0.4800E+03
      7.206  0.9744E-12  0.4800E+03
      7.268  0.3142E-13  0.4800E+03
      7.330  0.8976E-15  0.4800E+03
      7.392  0.0000E+00  0.4800E+03
      7.453  0.0000E+00  0.4800E+03
      7.515  0.0000E+00  0.4800E+03
      7.577  0.0000E+00  0.4800E+03
      7.639  0.0000E+00  0.4800E+03
      7.701  0.0000E+00  0.4800E+03
      7.763  0.0000E+00  0.4800E+03
      7.825  0.0000E+00  0.4800E+03
      7.886  0.0000E+00  0.4800E+03
      7.948  0.0000E+00  0.4800E+03
      8.010  0.0000E+00  0.4800E+03
