   36   36    1    1
  0.3666455E+02  0.7700375E-09  0.7700375E-09  0.2226000E-08  0.5000000E-15
  1.000000000000000E-004
  CAR 
 unknown system                          
    396      8    240
 
  0.1250000E+00  0.1250000E+00  0.0000000E+00  0.1250000E+00
    1       -8.542772   1.000000
    2       -6.996447   1.000000
    3       -6.718370   1.000000
    4       -6.712190   1.000000
    5       -5.734225   1.000000
    6       -5.728105   1.000000
    7       -5.481708   1.000000
    8       -5.474906   1.000000
    9       -5.280926   1.000000
   10       -5.101859   1.000000
   11       -4.968861   1.000000
   12       -4.962255   1.000000
   13       -4.749790   1.000000
   14       -4.747619   1.000000
   15       -4.649655   1.000000
   16       -4.567767   1.000000
   17       -4.349962   1.000000
   18       -4.323802   1.000000
   19       -4.313838   1.000000
   20       -4.293390   1.000000
   21       -4.285931   1.000000
   22       -4.240368   1.000000
   23       -4.169999   1.000000
   24       -4.110716   1.000000
   25       -4.109335   1.000000
   26       -4.048001   1.000000
   27       -4.034624   1.000000
   28       -4.030512   1.000000
   29       -3.996312   1.000000
   30       -3.991132   1.000000
   31       -3.985124   1.000000
   32       -3.974813   1.000000
   33       -3.967536   1.000000
   34       -3.899466   1.000000
   35       -3.893979   1.000000
   36       -3.891085   1.000000
   37       -3.885346   1.000000
   38       -3.875724   1.000000
   39       -3.795138   1.000000
   40       -3.791237   1.000000
   41       -3.743907   1.000000
   42       -3.727333   1.000000
   43       -3.702844   1.000000
   44       -3.696236   1.000000
   45       -3.609624   1.000000
   46       -3.498673   1.000000
   47       -3.495323   1.000000
   48       -3.485164   1.000000
   49       -3.479350   1.000000
   50       -3.446463   1.000000
   51       -3.419307   1.000000
   52       -3.397689   1.000000
   53       -3.391226   1.000000
   54       -3.389016   1.000000
   55       -3.347557   1.000000
   56       -3.281158   1.000000
   57       -3.279782   1.000000
   58       -3.259887   1.000000
   59       -3.218158   1.000000
   60       -3.215124   1.000000
   61       -3.212192   1.000000
   62       -3.190166   1.000000
   63       -3.167853   1.000000
   64       -3.162415   1.000000
   65       -3.159171   1.000000
   66       -3.142533   1.000000
   67       -3.135484   1.000000
   68       -3.130562   1.000000
   69       -3.079734   1.000000
   70       -3.076584   1.000000
   71       -3.071855   1.000000
   72       -2.974466   1.000000
   73       -2.965223   1.000000
   74       -2.954840   1.000000
   75       -2.946445   1.000000
   76       -2.919697   1.000000
   77       -2.906120   1.000000
   78       -2.900893   1.000000
   79       -2.866123   1.000000
   80       -2.861094   1.000000
   81       -2.851871   1.000000
   82       -2.843767   1.000000
   83       -2.839108   1.000000
   84       -2.833873   1.000000
   85       -2.816392   1.000000
   86       -2.813083   1.000000
   87       -2.807824   1.000000
   88       -2.802325   1.000000
   89       -2.799029   1.000000
   90       -2.789446   1.000000
   91       -2.780928   1.000000
   92       -2.771736   1.000000
   93       -2.762045   1.000000
   94       -2.749068   1.000000
   95       -2.733272   1.000000
   96       -2.729463   1.000000
   97       -2.683616   1.000000
   98       -2.679673   1.000000
   99       -2.635039   1.000000
  100       -2.581198   1.000000
  101       -2.579929   1.000000
  102       -2.546481   1.000000
  103       -2.542146   1.000000
  104       -2.438422   1.000000
  105       -2.426881   1.000000
  106       -2.420596   1.000000
  107       -2.417601   1.000000
  108       -2.388392   1.000000
  109       -2.381748   1.000000
  110       -2.370490   1.000000
  111       -2.364860   1.000000
  112       -2.350386   1.000000
  113       -2.322864   1.000000
  114       -2.318784   1.000000
  115       -2.318169   1.000000
  116       -2.314179   1.000000
  117       -2.295140   1.000000
  118       -2.287558   1.000000
  119       -2.282997   1.000000
  120       -2.279862   1.000000
  121       -2.265609   1.000000
  122       -2.261392   1.000000
  123       -2.239260   1.000000
  124       -2.219561   1.000000
  125       -2.213209   1.000000
  126       -2.210730   1.000000
  127       -2.205872   1.000000
  128       -2.192123   1.000000
  129       -2.191095   1.000000
  130       -2.184267   1.000000
  131       -2.182947   1.000000
  132       -2.179146   1.000000
  133       -2.174912   1.000000
  134       -2.173782   1.000000
  135       -2.162995   1.000000
  136       -2.159964   1.000000
  137       -2.112423   1.000000
  138       -2.095340   1.000000
  139       -2.061697   1.000000
  140       -2.037253   1.000000
  141       -2.028319   1.000000
  142       -2.022706   1.000000
  143       -2.007467   1.000000
  144       -1.997169   1.000000
  145       -1.994507   1.000000
  146       -1.991869   1.000000
  147       -1.981433   1.000000
  148       -1.979502   1.000000
  149       -1.977703   1.000000
  150       -1.976462   1.000000
  151       -1.945526   1.000000
  152       -1.943785   1.000000
  153       -1.895911   1.000000
  154       -1.863993   1.000000
  155       -1.861891   1.000000
  156       -1.853577   1.000000
  157       -1.851787   1.000000
  158       -1.841853   1.000000
  159       -1.837873   1.000000
  160       -1.827322   1.000000
  161       -1.821411   1.000000
  162       -1.819150   1.000000
  163       -1.817493   1.000000
  164       -1.816219   1.000000
  165       -1.815090   1.000000
  166       -1.806897   1.000000
  167       -1.802458   1.000000
  168       -1.800742   1.000000
  169       -1.777088   1.000000
  170       -1.775905   1.000000
  171       -1.739604   1.000000
  172       -1.737015   1.000000
  173       -1.735592   1.000000
  174       -1.731331   1.000000
  175       -1.728267   1.000000
  176       -1.689663   1.000000
  177       -1.654353   1.000000
  178       -1.653910   1.000000
  179       -1.652831   1.000000
  180       -1.650831   1.000000
  181       -1.642705   1.000000
  182       -1.635674   1.000000
  183       -1.634499   1.000000
  184       -1.622202   1.000000
  185       -1.602180   1.000000
  186       -1.591238   1.000000
  187       -1.589696   1.000000
  188       -1.588612   1.000000
  189       -1.582536   1.000000
  190       -1.579911   1.000000
  191       -1.575872   1.000000
  192       -1.529541   1.000000
  193       -1.108710   1.000000
  194       -1.105379   1.000000
  195       -0.849896   0.999988
  196       -0.848390   0.999987
  197       -0.770511   0.999883
  198       -0.501177   0.996313
  199       -0.384216   1.032199
  200       -0.156784   0.627312
  201       -0.152719   0.606430
  202        0.116074  -0.033766
  203        0.121882  -0.030978
  204        0.976975   0.000000
  205        1.049765   0.000000
  206        1.163331   0.000000
  207        1.539655   0.000000
  208        1.546453   0.000000
  209        1.986299   0.000000
  210        1.988028   0.000000
  211        2.052646   0.000000
  212        2.086850   0.000000
  213        2.098791   0.000000
  214        3.302118   0.000000
  215        3.357060   0.000000
  216        3.362314   0.000000
  217        3.426469   0.000000
  218        3.497595   0.000000
  219        3.617081   0.000000
  220        3.620437   0.000000
  221        3.846709   0.000000
  222        3.888518   0.000000
  223        3.894141   0.000000
  224        4.014283   0.000000
  225        4.023056   0.000000
  226        4.036452   0.000000
  227        4.033627   0.000000
  228        4.735554   0.000000
  229        4.737231   0.000000
  230        5.037396   0.000000
  231        5.039366   0.000000
  232        5.116895   0.000000
  233        5.120423   0.000000
  234        5.280660   0.000000
  235        5.394311   0.000000
  236        5.488102   0.000000
  237        5.488683   0.000000
  238        5.566528   0.000000
  239        5.638019   0.000000
  240        5.652420   0.000000
 
  0.3750000E+00  0.1250000E+00  0.0000000E+00  0.1250000E+00
    1       -8.218250   1.000000
    2       -7.590121   1.000000
    3       -6.696705   1.000000
    4       -6.429893   1.000000
    5       -6.144795   1.000000
    6       -5.909106   1.000000
    7       -5.491503   1.000000
    8       -5.224598   1.000000
    9       -5.100252   1.000000
   10       -4.957201   1.000000
   11       -4.862395   1.000000
   12       -4.792077   1.000000
   13       -4.765455   1.000000
   14       -4.754922   1.000000
   15       -4.511581   1.000000
   16       -4.484593   1.000000
   17       -4.478533   1.000000
   18       -4.421884   1.000000
   19       -4.414300   1.000000
   20       -4.375803   1.000000
   21       -4.261340   1.000000
   22       -4.218329   1.000000
   23       -4.204052   1.000000
   24       -4.173359   1.000000
   25       -4.130964   1.000000
   26       -4.106784   1.000000
   27       -4.088363   1.000000
   28       -4.076299   1.000000
   29       -4.069653   1.000000
   30       -4.042877   1.000000
   31       -4.017893   1.000000
   32       -4.008375   1.000000
   33       -3.926325   1.000000
   34       -3.916902   1.000000
   35       -3.839637   1.000000
   36       -3.827933   1.000000
   37       -3.803813   1.000000
   38       -3.798744   1.000000
   39       -3.739881   1.000000
   40       -3.732404   1.000000
   41       -3.715278   1.000000
   42       -3.689484   1.000000
   43       -3.671430   1.000000
   44       -3.614615   1.000000
   45       -3.611789   1.000000
   46       -3.600845   1.000000
   47       -3.549033   1.000000
   48       -3.509930   1.000000
   49       -3.502325   1.000000
   50       -3.479428   1.000000
   51       -3.478461   1.000000
   52       -3.413631   1.000000
   53       -3.381355   1.000000
   54       -3.362085   1.000000
   55       -3.345599   1.000000
   56       -3.333535   1.000000
   57       -3.316580   1.000000
   58       -3.303873   1.000000
   59       -3.267545   1.000000
   60       -3.257707   1.000000
   61       -3.238675   1.000000
   62       -3.234361   1.000000
   63       -3.220477   1.000000
   64       -3.219565   1.000000
   65       -3.197511   1.000000
   66       -3.190869   1.000000
   67       -3.171657   1.000000
   68       -3.105587   1.000000
   69       -3.065180   1.000000
   70       -3.038620   1.000000
   71       -3.021022   1.000000
   72       -3.019150   1.000000
   73       -3.003904   1.000000
   74       -2.985944   1.000000
   75       -2.942799   1.000000
   76       -2.917810   1.000000
   77       -2.896520   1.000000
   78       -2.892536   1.000000
   79       -2.883159   1.000000
   80       -2.877884   1.000000
   81       -2.871821   1.000000
   82       -2.866791   1.000000
   83       -2.860873   1.000000
   84       -2.848760   1.000000
   85       -2.841120   1.000000
   86       -2.822428   1.000000
   87       -2.812924   1.000000
   88       -2.807973   1.000000
   89       -2.786081   1.000000
   90       -2.776866   1.000000
   91       -2.771627   1.000000
   92       -2.759647   1.000000
   93       -2.744373   1.000000
   94       -2.710981   1.000000
   95       -2.701919   1.000000
   96       -2.673593   1.000000
   97       -2.651996   1.000000
   98       -2.644106   1.000000
   99       -2.590350   1.000000
  100       -2.580830   1.000000
  101       -2.540872   1.000000
  102       -2.536352   1.000000
  103       -2.524784   1.000000
  104       -2.521867   1.000000
  105       -2.514522   1.000000
  106       -2.512650   1.000000
  107       -2.493705   1.000000
  108       -2.489293   1.000000
  109       -2.479230   1.000000
  110       -2.458357   1.000000
  111       -2.442864   1.000000
  112       -2.431013   1.000000
  113       -2.405900   1.000000
  114       -2.400799   1.000000
  115       -2.380334   1.000000
  116       -2.375799   1.000000
  117       -2.371879   1.000000
  118       -2.367974   1.000000
  119       -2.349588   1.000000
  120       -2.336936   1.000000
  121       -2.322349   1.000000
  122       -2.317420   1.000000
  123       -2.291781   1.000000
  124       -2.288527   1.000000
  125       -2.279767   1.000000
  126       -2.222747   1.000000
  127       -2.195634   1.000000
  128       -2.173465   1.000000
  129       -2.166185   1.000000
  130       -2.160532   1.000000
  131       -2.151350   1.000000
  132       -2.143775   1.000000
  133       -2.121791   1.000000
  134       -2.110338   1.000000
  135       -2.105898   1.000000
  136       -2.102753   1.000000
  137       -2.090079   1.000000
  138       -2.085887   1.000000
  139       -2.072925   1.000000
  140       -2.063258   1.000000
  141       -2.054147   1.000000
  142       -2.051236   1.000000
  143       -2.044359   1.000000
  144       -2.039828   1.000000
  145       -2.021006   1.000000
  146       -2.014661   1.000000
  147       -1.998282   1.000000
  148       -1.989680   1.000000
  149       -1.958782   1.000000
  150       -1.953272   1.000000
  151       -1.948874   1.000000
  152       -1.916538   1.000000
  153       -1.900141   1.000000
  154       -1.896491   1.000000
  155       -1.882264   1.000000
  156       -1.880140   1.000000
  157       -1.848357   1.000000
  158       -1.840729   1.000000
  159       -1.820625   1.000000
  160       -1.816289   1.000000
  161       -1.815441   1.000000
  162       -1.807743   1.000000
  163       -1.798971   1.000000
  164       -1.796186   1.000000
  165       -1.791847   1.000000
  166       -1.780149   1.000000
  167       -1.759112   1.000000
  168       -1.757663   1.000000
  169       -1.756841   1.000000
  170       -1.754173   1.000000
  171       -1.743905   1.000000
  172       -1.733685   1.000000
  173       -1.730408   1.000000
  174       -1.725929   1.000000
  175       -1.711146   1.000000
  176       -1.690200   1.000000
  177       -1.672051   1.000000
  178       -1.663852   1.000000
  179       -1.650997   1.000000
  180       -1.646813   1.000000
  181       -1.638323   1.000000
  182       -1.609950   1.000000
  183       -1.595398   1.000000
  184       -1.593999   1.000000
  185       -1.578533   1.000000
  186       -1.555963   1.000000
  187       -1.502399   1.000000
  188       -1.463623   1.000000
  189       -1.441222   1.000000
  190       -1.380833   1.000000
  191       -1.340381   1.000000
  192       -1.274218   1.000000
  193       -1.204604   1.000000
  194       -0.851498   0.999988
  195       -0.761580   0.999853
  196       -0.627873   0.997778
  197       -0.456184   1.003585
  198       -0.036300   0.072414
  199        0.150089  -0.017880
  200        0.160069  -0.013762
  201        0.239425   0.003921
  202        0.340750   0.003005
  203        0.483116   0.000206
  204        0.675430   0.000001
  205        0.914785   0.000000
  206        1.113573   0.000000
  207        1.490115   0.000000
  208        1.616305   0.000000
  209        1.904025   0.000000
  210        1.913162   0.000000
  211        2.378847   0.000000
  212        2.404652   0.000000
  213        2.498499   0.000000
  214        2.515528   0.000000
  215        2.582082   0.000000
  216        2.600120   0.000000
  217        2.925544   0.000000
  218        3.039937   0.000000
  219        3.048233   0.000000
  220        3.131275   0.000000
  221        3.578901   0.000000
  222        3.589352   0.000000
  223        3.750528   0.000000
  224        3.971504   0.000000
  225        3.994092   0.000000
  226        4.019875   0.000000
  227        4.233229   0.000000
  228        4.311214   0.000000
  229        4.369039   0.000000
  230        4.394425   0.000000
  231        4.655667   0.000000
  232        4.856991   0.000000
  233        4.876703   0.000000
  234        5.033879   0.000000
  235        5.172174   0.000000
  236        5.330438   0.000000
  237        5.406572   0.000000
  238        5.437237   0.000000
  239        5.648333   0.000000
  240        5.914484   0.000000
 
 -0.3750000E+00  0.1250000E+00  0.0000000E+00  0.1250000E+00
    1       -8.218249   1.000000
    2       -7.590123   1.000000
    3       -6.696691   1.000000
    4       -6.429938   1.000000
    5       -6.144786   1.000000
    6       -5.909080   1.000000
    7       -5.491489   1.000000
    8       -5.224601   1.000000
    9       -5.100284   1.000000
   10       -4.957225   1.000000
   11       -4.862372   1.000000
   12       -4.791994   1.000000
   13       -4.765778   1.000000
   14       -4.754605   1.000000
   15       -4.511564   1.000000
   16       -4.484465   1.000000
   17       -4.478678   1.000000
   18       -4.421706   1.000000
   19       -4.414019   1.000000
   20       -4.376378   1.000000
   21       -4.261335   1.000000
   22       -4.218256   1.000000
   23       -4.204013   1.000000
   24       -4.173349   1.000000
   25       -4.130943   1.000000
   26       -4.107032   1.000000
   27       -4.088302   1.000000
   28       -4.076393   1.000000
   29       -4.069305   1.000000
   30       -4.043172   1.000000
   31       -4.018079   1.000000
   32       -4.008049   1.000000
   33       -3.926805   1.000000
   34       -3.916380   1.000000
   35       -3.839701   1.000000
   36       -3.828109   1.000000
   37       -3.803703   1.000000
   38       -3.798581   1.000000
   39       -3.740335   1.000000
   40       -3.732727   1.000000
   41       -3.715062   1.000000
   42       -3.688807   1.000000
   43       -3.671661   1.000000
   44       -3.614548   1.000000
   45       -3.611680   1.000000
   46       -3.600797   1.000000
   47       -3.549180   1.000000
   48       -3.510183   1.000000
   49       -3.502431   1.000000
   50       -3.479101   1.000000
   51       -3.478322   1.000000
   52       -3.413961   1.000000
   53       -3.381855   1.000000
   54       -3.361835   1.000000
   55       -3.345538   1.000000
   56       -3.333577   1.000000
   57       -3.316350   1.000000
   58       -3.303698   1.000000
   59       -3.267775   1.000000
   60       -3.257813   1.000000
   61       -3.238489   1.000000
   62       -3.233747   1.000000
   63       -3.220990   1.000000
   64       -3.219669   1.000000
   65       -3.197443   1.000000
   66       -3.191028   1.000000
   67       -3.171413   1.000000
   68       -3.105325   1.000000
   69       -3.065100   1.000000
   70       -3.038409   1.000000
   71       -3.021191   1.000000
   72       -3.019158   1.000000
   73       -3.003967   1.000000
   74       -2.985745   1.000000
   75       -2.943147   1.000000
   76       -2.917726   1.000000
   77       -2.896856   1.000000
   78       -2.892330   1.000000
   79       -2.882315   1.000000
   80       -2.878229   1.000000
   81       -2.872717   1.000000
   82       -2.867523   1.000000
   83       -2.861973   1.000000
   84       -2.847304   1.000000
   85       -2.840749   1.000000
   86       -2.821904   1.000000
   87       -2.812548   1.000000
   88       -2.808371   1.000000
   89       -2.786596   1.000000
   90       -2.776327   1.000000
   91       -2.771285   1.000000
   92       -2.759786   1.000000
   93       -2.744698   1.000000
   94       -2.711287   1.000000
   95       -2.702020   1.000000
   96       -2.673478   1.000000
   97       -2.652058   1.000000
   98       -2.643725   1.000000
   99       -2.590404   1.000000
  100       -2.581053   1.000000
  101       -2.541129   1.000000
  102       -2.536782   1.000000
  103       -2.523569   1.000000
  104       -2.521577   1.000000
  105       -2.514613   1.000000
  106       -2.513276   1.000000
  107       -2.494156   1.000000
  108       -2.488024   1.000000
  109       -2.478929   1.000000
  110       -2.458609   1.000000
  111       -2.443648   1.000000
  112       -2.430919   1.000000
  113       -2.406555   1.000000
  114       -2.400986   1.000000
  115       -2.380034   1.000000
  116       -2.375946   1.000000
  117       -2.372315   1.000000
  118       -2.367153   1.000000
  119       -2.350126   1.000000
  120       -2.336854   1.000000
  121       -2.322568   1.000000
  122       -2.316603   1.000000
  123       -2.292120   1.000000
  124       -2.288101   1.000000
  125       -2.279779   1.000000
  126       -2.222848   1.000000
  127       -2.195771   1.000000
  128       -2.173642   1.000000
  129       -2.166275   1.000000
  130       -2.160458   1.000000
  131       -2.150256   1.000000
  132       -2.143705   1.000000
  133       -2.122518   1.000000
  134       -2.109194   1.000000
  135       -2.105045   1.000000
  136       -2.102607   1.000000
  137       -2.090828   1.000000
  138       -2.086425   1.000000
  139       -2.074453   1.000000
  140       -2.063366   1.000000
  141       -2.053651   1.000000
  142       -2.050531   1.000000
  143       -2.044702   1.000000
  144       -2.040566   1.000000
  145       -2.020991   1.000000
  146       -2.014237   1.000000
  147       -1.998165   1.000000
  148       -1.989975   1.000000
  149       -1.958301   1.000000
  150       -1.952874   1.000000
  151       -1.949065   1.000000
  152       -1.916944   1.000000
  153       -1.900673   1.000000
  154       -1.896092   1.000000
  155       -1.882109   1.000000
  156       -1.880052   1.000000
  157       -1.848662   1.000000
  158       -1.840619   1.000000
  159       -1.820660   1.000000
  160       -1.816474   1.000000
  161       -1.815315   1.000000
  162       -1.807801   1.000000
  163       -1.799103   1.000000
  164       -1.796046   1.000000
  165       -1.791633   1.000000
  166       -1.780623   1.000000
  167       -1.758714   1.000000
  168       -1.757845   1.000000
  169       -1.756698   1.000000
  170       -1.754130   1.000000
  171       -1.743932   1.000000
  172       -1.733606   1.000000
  173       -1.730296   1.000000
  174       -1.726243   1.000000
  175       -1.710908   1.000000
  176       -1.690187   1.000000
  177       -1.672139   1.000000
  178       -1.664229   1.000000
  179       -1.650592   1.000000
  180       -1.646849   1.000000
  181       -1.638591   1.000000
  182       -1.609968   1.000000
  183       -1.595237   1.000000
  184       -1.594204   1.000000
  185       -1.578700   1.000000
  186       -1.555009   1.000000
  187       -1.502892   1.000000
  188       -1.463548   1.000000
  189       -1.441162   1.000000
  190       -1.380689   1.000000
  191       -1.340438   1.000000
  192       -1.274188   1.000000
  193       -1.204636   1.000000
  194       -0.851490   0.999988
  195       -0.761553   0.999853
  196       -0.627870   0.997778
  197       -0.456238   1.003571
  198       -0.036263   0.072306
  199        0.150585  -0.017667
  200        0.159848  -0.013849
  201        0.239101   0.003898
  202        0.340741   0.003005
  203        0.483101   0.000206
  204        0.675382   0.000001
  205        0.914824   0.000000
  206        1.113578   0.000000
  207        1.489702   0.000000
  208        1.616399   0.000000
  209        1.904447   0.000000
  210        1.913221   0.000000
  211        2.378888   0.000000
  212        2.404687   0.000000
  213        2.498564   0.000000
  214        2.515821   0.000000
  215        2.582323   0.000000
  216        2.599484   0.000000
  217        2.927388   0.000000
  218        3.041464   0.000000
  219        3.044168   0.000000
  220        3.131392   0.000000
  221        3.578516   0.000000
  222        3.589909   0.000000
  223        3.750904   0.000000
  224        3.971249   0.000000
  225        3.994124   0.000000
  226        4.019752   0.000000
  227        4.233842   0.000000
  228        4.310488   0.000000
  229        4.366119   0.000000
  230        4.394390   0.000000
  231        4.655693   0.000000
  232        4.856666   0.000000
  233        4.876473   0.000000
  234        5.033899   0.000000
  235        5.171704   0.000000
  236        5.331517   0.000000
  237        5.403231   0.000000
  238        5.438134   0.000000
  239        5.623153   0.000000
  240        5.741860   0.000000
 
 -0.1250000E+00  0.1250000E+00  0.0000000E+00  0.1250000E+00
    1       -8.542771   1.000000
    2       -6.996443   1.000000
    3       -6.717730   1.000000
    4       -6.712852   1.000000
    5       -5.733704   1.000000
    6       -5.728582   1.000000
    7       -5.482654   1.000000
    8       -5.474018   1.000000
    9       -5.280860   1.000000
   10       -5.101874   1.000000
   11       -4.969497   1.000000
   12       -4.961570   1.000000
   13       -4.749471   1.000000
   14       -4.747988   1.000000
   15       -4.649630   1.000000
   16       -4.567761   1.000000
   17       -4.349990   1.000000
   18       -4.323796   1.000000
   19       -4.313769   1.000000
   20       -4.293313   1.000000
   21       -4.285965   1.000000
   22       -4.240510   1.000000
   23       -4.170022   1.000000
   24       -4.110920   1.000000
   25       -4.109305   1.000000
   26       -4.047939   1.000000
   27       -4.034488   1.000000
   28       -4.030801   1.000000
   29       -3.995692   1.000000
   30       -3.990397   1.000000
   31       -3.985136   1.000000
   32       -3.975007   1.000000
   33       -3.968162   1.000000
   34       -3.900225   1.000000
   35       -3.894092   1.000000
   36       -3.890786   1.000000
   37       -3.885018   1.000000
   38       -3.875816   1.000000
   39       -3.795165   1.000000
   40       -3.791435   1.000000
   41       -3.743581   1.000000
   42       -3.727357   1.000000
   43       -3.702832   1.000000
   44       -3.696334   1.000000
   45       -3.609525   1.000000
   46       -3.498214   1.000000
   47       -3.495755   1.000000
   48       -3.485567   1.000000
   49       -3.478895   1.000000
   50       -3.446328   1.000000
   51       -3.419046   1.000000
   52       -3.398496   1.000000
   53       -3.391360   1.000000
   54       -3.388855   1.000000
   55       -3.347548   1.000000
   56       -3.281270   1.000000
   57       -3.279386   1.000000
   58       -3.259799   1.000000
   59       -3.218524   1.000000
   60       -3.215162   1.000000
   61       -3.212493   1.000000
   62       -3.189641   1.000000
   63       -3.168028   1.000000
   64       -3.162375   1.000000
   65       -3.159490   1.000000
   66       -3.142327   1.000000
   67       -3.135293   1.000000
   68       -3.130285   1.000000
   69       -3.079644   1.000000
   70       -3.076655   1.000000
   71       -3.071777   1.000000
   72       -2.974383   1.000000
   73       -2.965219   1.000000
   74       -2.953756   1.000000
   75       -2.947676   1.000000
   76       -2.919849   1.000000
   77       -2.906509   1.000000
   78       -2.900450   1.000000
   79       -2.866293   1.000000
   80       -2.859916   1.000000
   81       -2.853415   1.000000
   82       -2.842290   1.000000
   83       -2.840393   1.000000
   84       -2.833289   1.000000
   85       -2.816687   1.000000
   86       -2.812672   1.000000
   87       -2.807070   1.000000
   88       -2.802561   1.000000
   89       -2.799962   1.000000
   90       -2.789187   1.000000
   91       -2.780918   1.000000
   92       -2.772275   1.000000
   93       -2.761572   1.000000
   94       -2.748601   1.000000
   95       -2.733261   1.000000
   96       -2.729883   1.000000
   97       -2.683636   1.000000
   98       -2.680065   1.000000
   99       -2.635451   1.000000
  100       -2.581597   1.000000
  101       -2.579288   1.000000
  102       -2.546767   1.000000
  103       -2.541599   1.000000
  104       -2.438787   1.000000
  105       -2.427135   1.000000
  106       -2.419283   1.000000
  107       -2.418181   1.000000
  108       -2.388346   1.000000
  109       -2.381277   1.000000
  110       -2.370328   1.000000
  111       -2.363975   1.000000
  112       -2.350855   1.000000
  113       -2.323058   1.000000
  114       -2.319075   1.000000
  115       -2.318470   1.000000
  116       -2.314315   1.000000
  117       -2.295737   1.000000
  118       -2.286832   1.000000
  119       -2.282758   1.000000
  120       -2.279842   1.000000
  121       -2.266424   1.000000
  122       -2.261188   1.000000
  123       -2.239214   1.000000
  124       -2.220791   1.000000
  125       -2.212908   1.000000
  126       -2.209838   1.000000
  127       -2.205499   1.000000
  128       -2.192083   1.000000
  129       -2.190535   1.000000
  130       -2.185425   1.000000
  131       -2.182707   1.000000
  132       -2.178531   1.000000
  133       -2.174711   1.000000
  134       -2.172937   1.000000
  135       -2.163824   1.000000
  136       -2.160815   1.000000
  137       -2.112298   1.000000
  138       -2.095454   1.000000
  139       -2.062133   1.000000
  140       -2.037658   1.000000
  141       -2.028339   1.000000
  142       -2.022271   1.000000
  143       -2.006251   1.000000
  144       -1.997665   1.000000
  145       -1.995507   1.000000
  146       -1.991962   1.000000
  147       -1.981488   1.000000
  148       -1.979455   1.000000
  149       -1.977829   1.000000
  150       -1.976912   1.000000
  151       -1.945093   1.000000
  152       -1.943489   1.000000
  153       -1.895746   1.000000
  154       -1.863817   1.000000
  155       -1.862102   1.000000
  156       -1.853915   1.000000
  157       -1.851245   1.000000
  158       -1.841937   1.000000
  159       -1.837281   1.000000
  160       -1.827560   1.000000
  161       -1.821054   1.000000
  162       -1.819090   1.000000
  163       -1.817134   1.000000
  164       -1.816420   1.000000
  165       -1.815349   1.000000
  166       -1.806972   1.000000
  167       -1.802404   1.000000
  168       -1.801018   1.000000
  169       -1.777186   1.000000
  170       -1.775868   1.000000
  171       -1.740101   1.000000
  172       -1.736962   1.000000
  173       -1.736057   1.000000
  174       -1.731272   1.000000
  175       -1.727561   1.000000
  176       -1.689616   1.000000
  177       -1.654951   1.000000
  178       -1.653121   1.000000
  179       -1.652561   1.000000
  180       -1.651224   1.000000
  181       -1.642533   1.000000
  182       -1.635791   1.000000
  183       -1.634407   1.000000
  184       -1.621726   1.000000
  185       -1.602168   1.000000
  186       -1.591208   1.000000
  187       -1.589770   1.000000
  188       -1.588805   1.000000
  189       -1.581906   1.000000
  190       -1.579130   1.000000
  191       -1.577224   1.000000
  192       -1.529990   1.000000
  193       -1.108741   1.000000
  194       -1.105198   1.000000
  195       -0.849840   0.999988
  196       -0.848375   0.999987
  197       -0.770575   0.999883
  198       -0.501103   0.996319
  199       -0.384310   1.032153
  200       -0.157003   0.628429
  201       -0.152628   0.605962
  202        0.116122  -0.033743
  203        0.121906  -0.030966
  204        0.976912   0.000000
  205        1.049845   0.000000
  206        1.163213   0.000000
  207        1.539720   0.000000
  208        1.546388   0.000000
  209        1.985642   0.000000
  210        1.988367   0.000000
  211        2.052789   0.000000
  212        2.085961   0.000000
  213        2.100250   0.000000
  214        3.301494   0.000000
  215        3.356734   0.000000
  216        3.363205   0.000000
  217        3.428199   0.000000
  218        3.497354   0.000000
  219        3.615967   0.000000
  220        3.621606   0.000000
  221        3.847001   0.000000
  222        3.889194   0.000000
  223        3.893146   0.000000
  224        4.014387   0.000000
  225        4.022992   0.000000
  226        4.035991   0.000000
  227        4.034010   0.000000
  228        4.735579   0.000000
  229        4.737484   0.000000
  230        5.036747   0.000000
  231        5.039550   0.000000
  232        5.117904   0.000000
  233        5.120969   0.000000
  234        5.264429   0.000000
  235        5.398553   0.000000
  236        5.479608   0.000000
  237        5.495783   0.000000
  238        5.501417   0.000000
  239        5.555831   0.000000
  240        5.632278   0.000000
 
  0.1250000E+00  0.3750000E+00  0.0000000E+00  0.1250000E+00
    1       -8.218365   1.000000
    2       -7.590259   1.000000
    3       -6.695521   1.000000
    4       -6.431261   1.000000
    5       -6.142664   1.000000
    6       -5.910423   1.000000
    7       -5.492070   1.000000
    8       -5.225037   1.000000
    9       -5.100743   1.000000
   10       -4.957361   1.000000
   11       -4.862550   1.000000
   12       -4.792362   1.000000
   13       -4.763493   1.000000
   14       -4.755891   1.000000
   15       -4.512547   1.000000
   16       -4.484402   1.000000
   17       -4.478002   1.000000
   18       -4.423033   1.000000
   19       -4.415138   1.000000
   20       -4.374566   1.000000
   21       -4.264050   1.000000
   22       -4.213844   1.000000
   23       -4.203687   1.000000
   24       -4.167773   1.000000
   25       -4.136781   1.000000
   26       -4.098960   1.000000
   27       -4.089101   1.000000
   28       -4.080164   1.000000
   29       -4.067682   1.000000
   30       -4.039958   1.000000
   31       -4.020564   1.000000
   32       -4.014425   1.000000
   33       -3.924078   1.000000
   34       -3.917477   1.000000
   35       -3.841396   1.000000
   36       -3.830255   1.000000
   37       -3.805902   1.000000
   38       -3.796060   1.000000
   39       -3.736347   1.000000
   40       -3.731887   1.000000
   41       -3.717085   1.000000
   42       -3.688664   1.000000
   43       -3.679357   1.000000
   44       -3.613465   1.000000
   45       -3.610503   1.000000
   46       -3.598631   1.000000
   47       -3.545093   1.000000
   48       -3.506763   1.000000
   49       -3.501756   1.000000
   50       -3.483997   1.000000
   51       -3.478536   1.000000
   52       -3.415982   1.000000
   53       -3.375216   1.000000
   54       -3.366870   1.000000
   55       -3.351633   1.000000
   56       -3.328214   1.000000
   57       -3.319987   1.000000
   58       -3.306814   1.000000
   59       -3.259932   1.000000
   60       -3.254637   1.000000
   61       -3.238414   1.000000
   62       -3.233421   1.000000
   63       -3.221027   1.000000
   64       -3.212757   1.000000
   65       -3.202226   1.000000
   66       -3.194698   1.000000
   67       -3.178943   1.000000
   68       -3.104562   1.000000
   69       -3.065390   1.000000
   70       -3.034562   1.000000
   71       -3.025490   1.000000
   72       -3.020777   1.000000
   73       -3.001423   1.000000
   74       -2.988614   1.000000
   75       -2.941672   1.000000
   76       -2.920012   1.000000
   77       -2.895879   1.000000
   78       -2.889043   1.000000
   79       -2.880406   1.000000
   80       -2.877388   1.000000
   81       -2.871190   1.000000
   82       -2.867471   1.000000
   83       -2.858515   1.000000
   84       -2.854663   1.000000
   85       -2.839860   1.000000
   86       -2.825807   1.000000
   87       -2.810975   1.000000
   88       -2.809651   1.000000
   89       -2.786167   1.000000
   90       -2.776930   1.000000
   91       -2.773863   1.000000
   92       -2.752235   1.000000
   93       -2.745688   1.000000
   94       -2.711699   1.000000
   95       -2.703752   1.000000
   96       -2.676765   1.000000
   97       -2.650301   1.000000
   98       -2.647201   1.000000
   99       -2.589300   1.000000
  100       -2.575604   1.000000
  101       -2.542573   1.000000
  102       -2.538123   1.000000
  103       -2.526510   1.000000
  104       -2.519948   1.000000
  105       -2.514831   1.000000
  106       -2.510999   1.000000
  107       -2.493798   1.000000
  108       -2.488658   1.000000
  109       -2.475447   1.000000
  110       -2.459008   1.000000
  111       -2.449355   1.000000
  112       -2.433129   1.000000
  113       -2.402820   1.000000
  114       -2.387610   1.000000
  115       -2.385624   1.000000
  116       -2.378686   1.000000
  117       -2.375714   1.000000
  118       -2.369216   1.000000
  119       -2.344343   1.000000
  120       -2.336932   1.000000
  121       -2.322904   1.000000
  122       -2.304400   1.000000
  123       -2.296628   1.000000
  124       -2.289044   1.000000
  125       -2.281469   1.000000
  126       -2.221681   1.000000
  127       -2.191925   1.000000
  128       -2.175609   1.000000
  129       -2.166610   1.000000
  130       -2.160268   1.000000
  131       -2.152066   1.000000
  132       -2.142430   1.000000
  133       -2.121735   1.000000
  134       -2.111225   1.000000
  135       -2.102866   1.000000
  136       -2.099164   1.000000
  137       -2.090328   1.000000
  138       -2.087605   1.000000
  139       -2.071391   1.000000
  140       -2.061352   1.000000
  141       -2.056794   1.000000
  142       -2.055659   1.000000
  143       -2.041016   1.000000
  144       -2.040361   1.000000
  145       -2.018847   1.000000
  146       -2.015887   1.000000
  147       -1.998449   1.000000
  148       -1.989204   1.000000
  149       -1.960534   1.000000
  150       -1.954486   1.000000
  151       -1.949652   1.000000
  152       -1.916082   1.000000
  153       -1.899499   1.000000
  154       -1.894021   1.000000
  155       -1.883407   1.000000
  156       -1.880098   1.000000
  157       -1.846662   1.000000
  158       -1.839723   1.000000
  159       -1.817646   1.000000
  160       -1.816678   1.000000
  161       -1.815817   1.000000
  162       -1.807294   1.000000
  163       -1.800975   1.000000
  164       -1.797014   1.000000
  165       -1.794008   1.000000
  166       -1.780484   1.000000
  167       -1.761270   1.000000
  168       -1.758359   1.000000
  169       -1.756496   1.000000
  170       -1.754669   1.000000
  171       -1.744986   1.000000
  172       -1.731776   1.000000
  173       -1.729719   1.000000
  174       -1.726323   1.000000
  175       -1.711467   1.000000
  176       -1.690522   1.000000
  177       -1.673065   1.000000
  178       -1.661801   1.000000
  179       -1.651942   1.000000
  180       -1.647780   1.000000
  181       -1.638295   1.000000
  182       -1.609017   1.000000
  183       -1.595285   1.000000
  184       -1.593679   1.000000
  185       -1.578215   1.000000
  186       -1.554790   1.000000
  187       -1.504329   1.000000
  188       -1.464549   1.000000
  189       -1.442480   1.000000
  190       -1.380956   1.000000
  191       -1.340853   1.000000
  192       -1.274848   1.000000
  193       -1.205536   1.000000
  194       -0.852683   0.999989
  195       -0.762916   0.999858
  196       -0.628434   0.997796
  197       -0.456565   1.003488
  198       -0.037240   0.075218
  199        0.150066  -0.017890
  200        0.161604  -0.013162
  201        0.237946   0.003813
  202        0.338976   0.003071
  203        0.480677   0.000219
  204        0.677656   0.000001
  205        0.914827   0.000000
  206        1.112753   0.000000
  207        1.489547   0.000000
  208        1.619199   0.000000
  209        1.900217   0.000000
  210        1.916586   0.000000
  211        2.378838   0.000000
  212        2.402289   0.000000
  213        2.498369   0.000000
  214        2.523023   0.000000
  215        2.576774   0.000000
  216        2.600362   0.000000
  217        2.928332   0.000000
  218        3.042238   0.000000
  219        3.043247   0.000000
  220        3.131320   0.000000
  221        3.579779   0.000000
  222        3.590082   0.000000
  223        3.750184   0.000000
  224        3.969657   0.000000
  225        3.996184   0.000000
  226        4.017916   0.000000
  227        4.234678   0.000000
  228        4.313526   0.000000
  229        4.361491   0.000000
  230        4.394211   0.000000
  231        4.657496   0.000000
  232        4.856812   0.000000
  233        4.878614   0.000000
  234        5.032940   0.000000
  235        5.172671   0.000000
  236        5.331170   0.000000
  237        5.402529   0.000000
  238        5.431808   0.000000
  239        5.693674   0.000000
  240        5.800574   0.000000
 
  0.3750000E+00  0.3750000E+00  0.0000000E+00  0.1250000E+00
    1       -7.898314   1.000000
    2       -7.284873   1.000000
    3       -7.277984   1.000000
    4       -6.694128   1.000000
    5       -6.400474   1.000000
    6       -5.865489   1.000000
    7       -5.856883   1.000000
    8       -5.356743   1.000000
    9       -4.770123   1.000000
   10       -4.763134   1.000000
   11       -4.628306   1.000000
   12       -4.587397   1.000000
   13       -4.578987   1.000000
   14       -4.533709   1.000000
   15       -4.506837   1.000000
   16       -4.503154   1.000000
   17       -4.477711   1.000000
   18       -4.326807   1.000000
   19       -4.310762   1.000000
   20       -4.306288   1.000000
   21       -4.289009   1.000000
   22       -4.284313   1.000000
   23       -4.164078   1.000000
   24       -4.161026   1.000000
   25       -4.131397   1.000000
   26       -4.124513   1.000000
   27       -4.094270   1.000000
   28       -4.087860   1.000000
   29       -4.077334   1.000000
   30       -4.074569   1.000000
   31       -4.005746   1.000000
   32       -3.984848   1.000000
   33       -3.982080   1.000000
   34       -3.977203   1.000000
   35       -3.931670   1.000000
   36       -3.927102   1.000000
   37       -3.907265   1.000000
   38       -3.847855   1.000000
   39       -3.845098   1.000000
   40       -3.838993   1.000000
   41       -3.798001   1.000000
   42       -3.670941   1.000000
   43       -3.632983   1.000000
   44       -3.593994   1.000000
   45       -3.590750   1.000000
   46       -3.530019   1.000000
   47       -3.519333   1.000000
   48       -3.504958   1.000000
   49       -3.499002   1.000000
   50       -3.492141   1.000000
   51       -3.477179   1.000000
   52       -3.470944   1.000000
   53       -3.437131   1.000000
   54       -3.428345   1.000000
   55       -3.398388   1.000000
   56       -3.311514   1.000000
   57       -3.302681   1.000000
   58       -3.295345   1.000000
   59       -3.287867   1.000000
   60       -3.250093   1.000000
   61       -3.242748   1.000000
   62       -3.204823   1.000000
   63       -3.202604   1.000000
   64       -3.167523   1.000000
   65       -3.159127   1.000000
   66       -3.139780   1.000000
   67       -3.133871   1.000000
   68       -3.119202   1.000000
   69       -3.110652   1.000000
   70       -3.061780   1.000000
   71       -3.053041   1.000000
   72       -3.032089   1.000000
   73       -3.028790   1.000000
   74       -3.018898   1.000000
   75       -3.008850   1.000000
   76       -2.973590   1.000000
   77       -2.939630   1.000000
   78       -2.933394   1.000000
   79       -2.929238   1.000000
   80       -2.924807   1.000000
   81       -2.922223   1.000000
   82       -2.913610   1.000000
   83       -2.855590   1.000000
   84       -2.845772   1.000000
   85       -2.842164   1.000000
   86       -2.824754   1.000000
   87       -2.802121   1.000000
   88       -2.798858   1.000000
   89       -2.772639   1.000000
   90       -2.768927   1.000000
   91       -2.745207   1.000000
   92       -2.740843   1.000000
   93       -2.736335   1.000000
   94       -2.697191   1.000000
   95       -2.695111   1.000000
   96       -2.644311   1.000000
   97       -2.635209   1.000000
   98       -2.631302   1.000000
   99       -2.613330   1.000000
  100       -2.596014   1.000000
  101       -2.589779   1.000000
  102       -2.556312   1.000000
  103       -2.542413   1.000000
  104       -2.531784   1.000000
  105       -2.526400   1.000000
  106       -2.524042   1.000000
  107       -2.519483   1.000000
  108       -2.516838   1.000000
  109       -2.505337   1.000000
  110       -2.495701   1.000000
  111       -2.444677   1.000000
  112       -2.441178   1.000000
  113       -2.438770   1.000000
  114       -2.432820   1.000000
  115       -2.415546   1.000000
  116       -2.408401   1.000000
  117       -2.392734   1.000000
  118       -2.389996   1.000000
  119       -2.384675   1.000000
  120       -2.380411   1.000000
  121       -2.375131   1.000000
  122       -2.369771   1.000000
  123       -2.363375   1.000000
  124       -2.351703   1.000000
  125       -2.348618   1.000000
  126       -2.348002   1.000000
  127       -2.316925   1.000000
  128       -2.293394   1.000000
  129       -2.289856   1.000000
  130       -2.267614   1.000000
  131       -2.209093   1.000000
  132       -2.205439   1.000000
  133       -2.157810   1.000000
  134       -2.154363   1.000000
  135       -2.107998   1.000000
  136       -2.106256   1.000000
  137       -2.105451   1.000000
  138       -2.073546   1.000000
  139       -2.052785   1.000000
  140       -2.049261   1.000000
  141       -2.045966   1.000000
  142       -2.043574   1.000000
  143       -2.037248   1.000000
  144       -2.033908   1.000000
  145       -2.028972   1.000000
  146       -2.001667   1.000000
  147       -2.001361   1.000000
  148       -1.967828   1.000000
  149       -1.964215   1.000000
  150       -1.946609   1.000000
  151       -1.918298   1.000000
  152       -1.884884   1.000000
  153       -1.879149   1.000000
  154       -1.867632   1.000000
  155       -1.861151   1.000000
  156       -1.860164   1.000000
  157       -1.859105   1.000000
  158       -1.856230   1.000000
  159       -1.839636   1.000000
  160       -1.836553   1.000000
  161       -1.833241   1.000000
  162       -1.832238   1.000000
  163       -1.818287   1.000000
  164       -1.816895   1.000000
  165       -1.815461   1.000000
  166       -1.814746   1.000000
  167       -1.749075   1.000000
  168       -1.732120   1.000000
  169       -1.727104   1.000000
  170       -1.710545   1.000000
  171       -1.709589   1.000000
  172       -1.703910   1.000000
  173       -1.694802   1.000000
  174       -1.682063   1.000000
  175       -1.681565   1.000000
  176       -1.667039   1.000000
  177       -1.666477   1.000000
  178       -1.642305   1.000000
  179       -1.639920   1.000000
  180       -1.637934   1.000000
  181       -1.634234   1.000000
  182       -1.624813   1.000000
  183       -1.623710   1.000000
  184       -1.613397   1.000000
  185       -1.605941   1.000000
  186       -1.558241   1.000000
  187       -1.379032   1.000000
  188       -1.280209   1.000000
  189       -1.259971   1.000000
  190       -1.007917   1.000000
  191       -1.006444   1.000000
  192       -0.673743   0.998973
  193       -0.671379   0.998927
  194       -0.526664   0.995144
  195       -0.343033   1.048960
  196       -0.342180   1.049180
  197       -0.196690   0.814038
  198       -0.191930   0.794024
  199        0.365552   0.002139
  200        0.579983   0.000014
  201        0.584511   0.000013
  202        0.768813   0.000000
  203        0.770650   0.000000
  204        0.861087   0.000000
  205        0.865450   0.000000
  206        1.036110   0.000000
  207        1.046744   0.000000
  208        1.271740   0.000000
  209        1.275133   0.000000
  210        1.688396   0.000000
  211        1.842547   0.000000
  212        1.853772   0.000000
  213        1.913139   0.000000
  214        2.098882   0.000000
  215        2.656758   0.000000
  216        2.708474   0.000000
  217        2.919323   0.000000
  218        2.924070   0.000000
  219        3.092788   0.000000
  220        3.100839   0.000000
  221        3.370135   0.000000
  222        3.371925   0.000000
  223        3.437715   0.000000
  224        3.439849   0.000000
  225        3.654483   0.000000
  226        3.804276   0.000000
  227        3.888264   0.000000
  228        3.889384   0.000000
  229        4.039854   0.000000
  230        4.075943   0.000000
  231        4.485504   0.000000
  232        4.493043   0.000000
  233        4.682833   0.000000
  234        4.715588   0.000000
  235        4.718074   0.000000
  236        5.372072   0.000000
  237        5.378855   0.000000
  238        5.372221   0.000000
  239        5.820338   0.000000
  240        6.010072   0.000000
 
 -0.3750000E+00  0.3750000E+00  0.0000000E+00  0.1250000E+00
    1       -7.898311   1.000000
    2       -7.284155   1.000000
    3       -7.278725   1.000000
    4       -6.694093   1.000000
    5       -6.400481   1.000000
    6       -5.866590   1.000000
    7       -5.855795   1.000000
    8       -5.356723   1.000000
    9       -4.770292   1.000000
   10       -4.763043   1.000000
   11       -4.628280   1.000000
   12       -4.587668   1.000000
   13       -4.578489   1.000000
   14       -4.533627   1.000000
   15       -4.505950   1.000000
   16       -4.503303   1.000000
   17       -4.478713   1.000000
   18       -4.326860   1.000000
   19       -4.311096   1.000000
   20       -4.305755   1.000000
   21       -4.288457   1.000000
   22       -4.285020   1.000000
   23       -4.163769   1.000000
   24       -4.161306   1.000000
   25       -4.131440   1.000000
   26       -4.124204   1.000000
   27       -4.093976   1.000000
   28       -4.087891   1.000000
   29       -4.078042   1.000000
   30       -4.074577   1.000000
   31       -4.005889   1.000000
   32       -3.984959   1.000000
   33       -3.981902   1.000000
   34       -3.977269   1.000000
   35       -3.931708   1.000000
   36       -3.926988   1.000000
   37       -3.907073   1.000000
   38       -3.847471   1.000000
   39       -3.845242   1.000000
   40       -3.839238   1.000000
   41       -3.797987   1.000000
   42       -3.671018   1.000000
   43       -3.632836   1.000000
   44       -3.593728   1.000000
   45       -3.590803   1.000000
   46       -3.530657   1.000000
   47       -3.519776   1.000000
   48       -3.504917   1.000000
   49       -3.498628   1.000000
   50       -3.493098   1.000000
   51       -3.476468   1.000000
   52       -3.470960   1.000000
   53       -3.436799   1.000000
   54       -3.427768   1.000000
   55       -3.398417   1.000000
   56       -3.311600   1.000000
   57       -3.302796   1.000000
   58       -3.294843   1.000000
   59       -3.288039   1.000000
   60       -3.250496   1.000000
   61       -3.242814   1.000000
   62       -3.205070   1.000000
   63       -3.202331   1.000000
   64       -3.169194   1.000000
   65       -3.158241   1.000000
   66       -3.140658   1.000000
   67       -3.131767   1.000000
   68       -3.119160   1.000000
   69       -3.109830   1.000000
   70       -3.063051   1.000000
   71       -3.053205   1.000000
   72       -3.032093   1.000000
   73       -3.028261   1.000000
   74       -3.018838   1.000000
   75       -3.009113   1.000000
   76       -2.973923   1.000000
   77       -2.939786   1.000000
   78       -2.932992   1.000000
   79       -2.929767   1.000000
   80       -2.924412   1.000000
   81       -2.922143   1.000000
   82       -2.913347   1.000000
   83       -2.856960   1.000000
   84       -2.845446   1.000000
   85       -2.841377   1.000000
   86       -2.823393   1.000000
   87       -2.802141   1.000000
   88       -2.799334   1.000000
   89       -2.772836   1.000000
   90       -2.769263   1.000000
   91       -2.745750   1.000000
   92       -2.740375   1.000000
   93       -2.736761   1.000000
   94       -2.698022   1.000000
   95       -2.694337   1.000000
   96       -2.644002   1.000000
   97       -2.635182   1.000000
   98       -2.631386   1.000000
   99       -2.613641   1.000000
  100       -2.596411   1.000000
  101       -2.589885   1.000000
  102       -2.556447   1.000000
  103       -2.543035   1.000000
  104       -2.531090   1.000000
  105       -2.526059   1.000000
  106       -2.524215   1.000000
  107       -2.518932   1.000000
  108       -2.517191   1.000000
  109       -2.506159   1.000000
  110       -2.494086   1.000000
  111       -2.444319   1.000000
  112       -2.441647   1.000000
  113       -2.438549   1.000000
  114       -2.432059   1.000000
  115       -2.416281   1.000000
  116       -2.408384   1.000000
  117       -2.392671   1.000000
  118       -2.389802   1.000000
  119       -2.383320   1.000000
  120       -2.380150   1.000000
  121       -2.375610   1.000000
  122       -2.370014   1.000000
  123       -2.364949   1.000000
  124       -2.351923   1.000000
  125       -2.348828   1.000000
  126       -2.347488   1.000000
  127       -2.317159   1.000000
  128       -2.292018   1.000000
  129       -2.290466   1.000000
  130       -2.268529   1.000000
  131       -2.209314   1.000000
  132       -2.204528   1.000000
  133       -2.157497   1.000000
  134       -2.154617   1.000000
  135       -2.108300   1.000000
  136       -2.106529   1.000000
  137       -2.105590   1.000000
  138       -2.073461   1.000000
  139       -2.052395   1.000000
  140       -2.049746   1.000000
  141       -2.047052   1.000000
  142       -2.043143   1.000000
  143       -2.037153   1.000000
  144       -2.033944   1.000000
  145       -2.028444   1.000000
  146       -2.001592   1.000000
  147       -2.001346   1.000000
  148       -1.967594   1.000000
  149       -1.964249   1.000000
  150       -1.946632   1.000000
  151       -1.918241   1.000000
  152       -1.884994   1.000000
  153       -1.878969   1.000000
  154       -1.868008   1.000000
  155       -1.861407   1.000000
  156       -1.860249   1.000000
  157       -1.858814   1.000000
  158       -1.856052   1.000000
  159       -1.839558   1.000000
  160       -1.836868   1.000000
  161       -1.832877   1.000000
  162       -1.832051   1.000000
  163       -1.818078   1.000000
  164       -1.816885   1.000000
  165       -1.815617   1.000000
  166       -1.814700   1.000000
  167       -1.749043   1.000000
  168       -1.732160   1.000000
  169       -1.727346   1.000000
  170       -1.710797   1.000000
  171       -1.709399   1.000000
  172       -1.703873   1.000000
  173       -1.695004   1.000000
  174       -1.682048   1.000000
  175       -1.681437   1.000000
  176       -1.667101   1.000000
  177       -1.666426   1.000000
  178       -1.642400   1.000000
  179       -1.640477   1.000000
  180       -1.637288   1.000000
  181       -1.633987   1.000000
  182       -1.625054   1.000000
  183       -1.623481   1.000000
  184       -1.613536   1.000000
  185       -1.605941   1.000000
  186       -1.558279   1.000000
  187       -1.379049   1.000000
  188       -1.280221   1.000000
  189       -1.259979   1.000000
  190       -1.007791   1.000000
  191       -1.006428   1.000000
  192       -0.673291   0.998965
  193       -0.671787   0.998935
  194       -0.526790   0.995142
  195       -0.343128   1.048935
  196       -0.342079   1.049206
  197       -0.197582   0.817709
  198       -0.190791   0.789130
  199        0.365497   0.002141
  200        0.579858   0.000015
  201        0.584525   0.000013
  202        0.768737   0.000000
  203        0.770539   0.000000
  204        0.861025   0.000000
  205        0.865323   0.000000
  206        1.036402   0.000000
  207        1.046525   0.000000
  208        1.272186   0.000000
  209        1.274794   0.000000
  210        1.688465   0.000000
  211        1.844783   0.000000
  212        1.853452   0.000000
  213        1.911237   0.000000
  214        2.098880   0.000000
  215        2.656989   0.000000
  216        2.707724   0.000000
  217        2.918245   0.000000
  218        2.925184   0.000000
  219        3.091763   0.000000
  220        3.101703   0.000000
  221        3.369901   0.000000
  222        3.372149   0.000000
  223        3.438049   0.000000
  224        3.439951   0.000000
  225        3.654446   0.000000
  226        3.802830   0.000000
  227        3.887483   0.000000
  228        3.890808   0.000000
  229        4.039512   0.000000
  230        4.073295   0.000000
  231        4.485126   0.000000
  232        4.493612   0.000000
  233        4.683059   0.000000
  234        4.715635   0.000000
  235        4.718062   0.000000
  236        5.368849   0.000000
  237        5.378548   0.000000
  238        5.371732   0.000000
  239        5.819785   0.000000
  240        5.826831   0.000000
 
 -0.1250000E+00  0.3750000E+00  0.0000000E+00  0.1250000E+00
    1       -8.218364   1.000000
    2       -7.590260   1.000000
    3       -6.695513   1.000000
    4       -6.431300   1.000000
    5       -6.142634   1.000000
    6       -5.910428   1.000000
    7       -5.492069   1.000000
    8       -5.225048   1.000000
    9       -5.100706   1.000000
   10       -4.957386   1.000000
   11       -4.862508   1.000000
   12       -4.792260   1.000000
   13       -4.763981   1.000000
   14       -4.755408   1.000000
   15       -4.512564   1.000000
   16       -4.484297   1.000000
   17       -4.478133   1.000000
   18       -4.423826   1.000000
   19       -4.414666   1.000000
   20       -4.374326   1.000000
   21       -4.264006   1.000000
   22       -4.213889   1.000000
   23       -4.203697   1.000000
   24       -4.167924   1.000000
   25       -4.136583   1.000000
   26       -4.099068   1.000000
   27       -4.089208   1.000000
   28       -4.080128   1.000000
   29       -4.067452   1.000000
   30       -4.039823   1.000000
   31       -4.020712   1.000000
   32       -4.014475   1.000000
   33       -3.923564   1.000000
   34       -3.918088   1.000000
   35       -3.841353   1.000000
   36       -3.830015   1.000000
   37       -3.805974   1.000000
   38       -3.796338   1.000000
   39       -3.736230   1.000000
   40       -3.732012   1.000000
   41       -3.717166   1.000000
   42       -3.688893   1.000000
   43       -3.679096   1.000000
   44       -3.613583   1.000000
   45       -3.610586   1.000000
   46       -3.598205   1.000000
   47       -3.545052   1.000000
   48       -3.506576   1.000000
   49       -3.501811   1.000000
   50       -3.484387   1.000000
   51       -3.478542   1.000000
   52       -3.416043   1.000000
   53       -3.375107   1.000000
   54       -3.367374   1.000000
   55       -3.351385   1.000000
   56       -3.327809   1.000000
   57       -3.319922   1.000000
   58       -3.307186   1.000000
   59       -3.259767   1.000000
   60       -3.254612   1.000000
   61       -3.237961   1.000000
   62       -3.233488   1.000000
   63       -3.221047   1.000000
   64       -3.212700   1.000000
   65       -3.202515   1.000000
   66       -3.194693   1.000000
   67       -3.178830   1.000000
   68       -3.104538   1.000000
   69       -3.065297   1.000000
   70       -3.034548   1.000000
   71       -3.026101   1.000000
   72       -3.021079   1.000000
   73       -3.001337   1.000000
   74       -2.988115   1.000000
   75       -2.941342   1.000000
   76       -2.919328   1.000000
   77       -2.896575   1.000000
   78       -2.889744   1.000000
   79       -2.880396   1.000000
   80       -2.877788   1.000000
   81       -2.870651   1.000000
   82       -2.866775   1.000000
   83       -2.857767   1.000000
   84       -2.856061   1.000000
   85       -2.839470   1.000000
   86       -2.825600   1.000000
   87       -2.811517   1.000000
   88       -2.807961   1.000000
   89       -2.787420   1.000000
   90       -2.776870   1.000000
   91       -2.774182   1.000000
   92       -2.751934   1.000000
   93       -2.745763   1.000000
   94       -2.711574   1.000000
   95       -2.703620   1.000000
   96       -2.677332   1.000000
   97       -2.650713   1.000000
   98       -2.647430   1.000000
   99       -2.590018   1.000000
  100       -2.575468   1.000000
  101       -2.542960   1.000000
  102       -2.536321   1.000000
  103       -2.525611   1.000000
  104       -2.519997   1.000000
  105       -2.514846   1.000000
  106       -2.510629   1.000000
  107       -2.493597   1.000000
  108       -2.488825   1.000000
  109       -2.477529   1.000000
  110       -2.459013   1.000000
  111       -2.448793   1.000000
  112       -2.433627   1.000000
  113       -2.403030   1.000000
  114       -2.388242   1.000000
  115       -2.385744   1.000000
  116       -2.377890   1.000000
  117       -2.375456   1.000000
  118       -2.368314   1.000000
  119       -2.343285   1.000000
  120       -2.336957   1.000000
  121       -2.323046   1.000000
  122       -2.305117   1.000000
  123       -2.295270   1.000000
  124       -2.288779   1.000000
  125       -2.283099   1.000000
  126       -2.221601   1.000000
  127       -2.191950   1.000000
  128       -2.175341   1.000000
  129       -2.167144   1.000000
  130       -2.160293   1.000000
  131       -2.152169   1.000000
  132       -2.142211   1.000000
  133       -2.121855   1.000000
  134       -2.111722   1.000000
  135       -2.103508   1.000000
  136       -2.098540   1.000000
  137       -2.090125   1.000000
  138       -2.087976   1.000000
  139       -2.071905   1.000000
  140       -2.061263   1.000000
  141       -2.057340   1.000000
  142       -2.055666   1.000000
  143       -2.041144   1.000000
  144       -2.039814   1.000000
  145       -2.018356   1.000000
  146       -2.015766   1.000000
  147       -1.998523   1.000000
  148       -1.988907   1.000000
  149       -1.960849   1.000000
  150       -1.954142   1.000000
  151       -1.949638   1.000000
  152       -1.915695   1.000000
  153       -1.900333   1.000000
  154       -1.893504   1.000000
  155       -1.883394   1.000000
  156       -1.880151   1.000000
  157       -1.846453   1.000000
  158       -1.839587   1.000000
  159       -1.818070   1.000000
  160       -1.816817   1.000000
  161       -1.815715   1.000000
  162       -1.807111   1.000000
  163       -1.801203   1.000000
  164       -1.797180   1.000000
  165       -1.793531   1.000000
  166       -1.780358   1.000000
  167       -1.761945   1.000000
  168       -1.758377   1.000000
  169       -1.756651   1.000000
  170       -1.754362   1.000000
  171       -1.744159   1.000000
  172       -1.731856   1.000000
  173       -1.729764   1.000000
  174       -1.726451   1.000000
  175       -1.711605   1.000000
  176       -1.690541   1.000000
  177       -1.673226   1.000000
  178       -1.661764   1.000000
  179       -1.651813   1.000000
  180       -1.647881   1.000000
  181       -1.638259   1.000000
  182       -1.608961   1.000000
  183       -1.595313   1.000000
  184       -1.593576   1.000000
  185       -1.578202   1.000000
  186       -1.555029   1.000000
  187       -1.504108   1.000000
  188       -1.464697   1.000000
  189       -1.442605   1.000000
  190       -1.381109   1.000000
  191       -1.340727   1.000000
  192       -1.274899   1.000000
  193       -1.205339   1.000000
  194       -0.852668   0.999989
  195       -0.762850   0.999857
  196       -0.628471   0.997798
  197       -0.456420   1.003525
  198       -0.037254   0.075258
  199        0.148970  -0.018364
  200        0.162665  -0.012753
  201        0.237940   0.003813
  202        0.338846   0.003076
  203        0.480661   0.000219
  204        0.677682   0.000001
  205        0.914697   0.000000
  206        1.112849   0.000000
  207        1.489563   0.000000
  208        1.619298   0.000000
  209        1.899713   0.000000
  210        1.916962   0.000000
  211        2.378740   0.000000
  212        2.402059   0.000000
  213        2.498138   0.000000
  214        2.523215   0.000000
  215        2.576960   0.000000
  216        2.600734   0.000000
  217        2.927882   0.000000
  218        3.042474   0.000000
  219        3.043467   0.000000
  220        3.131361   0.000000
  221        3.578905   0.000000
  222        3.590669   0.000000
  223        3.750177   0.000000
  224        3.970290   0.000000
  225        3.996343   0.000000
  226        4.017816   0.000000
  227        4.233867   0.000000
  228        4.314633   0.000000
  229        4.367126   0.000000
  230        4.394188   0.000000
  231        4.657527   0.000000
  232        4.856388   0.000000
  233        4.878781   0.000000
  234        5.032332   0.000000
  235        5.172786   0.000000
  236        5.330922   0.000000
  237        5.402334   0.000000
  238        5.438789   0.000000
  239        5.610415   0.000000
  240        5.822137   0.000000
