       N       E                     dE             d eps       ncg     rms          rms(c)
RMM:   1     0.312766473504E+04    0.31277E+04   -0.15847E+05  1920   0.194E+03
RMM:   2     0.707332183910E+03   -0.24203E+04   -0.27320E+04  1920   0.365E+02
RMM:   3     0.171530887227E+03   -0.53580E+03   -0.54396E+03  1920   0.246E+02
RMM:   4    -0.430122194500E+02   -0.21454E+03   -0.94588E+02  1920   0.122E+02
RMM:   5    -0.986619190285E+02   -0.55650E+02   -0.35665E+02  1920   0.635E+01
RMM:   6    -0.121464673977E+03   -0.22803E+02   -0.17381E+02  1920   0.531E+01
RMM:   7    -0.133146449637E+03   -0.11682E+02   -0.97362E+01  1920   0.338E+01
RMM:   8    -0.139399301791E+03   -0.62529E+01   -0.52897E+01  1920   0.280E+01
RMM:   9    -0.146143885131E+03   -0.67446E+01   -0.63314E+01  5769   0.182E+01
RMM:  10    -0.146337900261E+03   -0.19402E+00   -0.22328E+00  4288   0.599E+00
RMM:  11    -0.146437106771E+03   -0.99207E-01   -0.83612E-01  5839   0.112E+00
RMM:  12    -0.146438343245E+03   -0.12365E-02   -0.10243E-02  4281   0.407E-01    0.523E+01
RMM:  13    -0.481428724550E+03   -0.33499E+03   -0.16294E+03  5894   0.140E+02    0.964E+01
RMM:  14    -0.170425655853E+03    0.31100E+03   -0.37357E+02  4138   0.921E+01    0.462E+01
RMM:  15    -0.117373152222E+03    0.53053E+02   -0.14420E+02  4054   0.580E+01    0.204E+01
RMM:  16    -0.110962197382E+03    0.64110E+01   -0.28123E+01  4121   0.255E+01    0.101E+01
RMM:  17    -0.108700297382E+03    0.22619E+01   -0.10544E+01  4139   0.126E+01    0.308E+00
RMM:  18    -0.108719989113E+03   -0.19692E-01   -0.40791E+00  4306   0.519E+00    0.411E+00
RMM:  19    -0.108470220414E+03    0.24977E+00   -0.93209E-01  4121   0.490E+00    0.159E+00
RMM:  20    -0.108338644411E+03    0.13158E+00   -0.11512E-01  4190   0.137E+00    0.578E-01
RMM:  21    -0.108329539056E+03    0.91054E-02   -0.66402E-02  4195   0.111E+00    0.614E-01
RMM:  22    -0.108307504074E+03    0.22035E-01   -0.23664E-02  4015   0.656E-01    0.224E-01
RMM:  23    -0.108304816772E+03    0.26873E-02   -0.50306E-03  4176   0.298E-01    0.196E-01
RMM:  24    -0.108300820928E+03    0.39958E-02   -0.34984E-03  4050   0.198E-01    0.110E-01
RMM:  25    -0.108300523427E+03    0.29750E-03   -0.41133E-03  4031   0.221E-01    0.113E-01
RMM:  26    -0.108300835782E+03   -0.31235E-03   -0.59017E-04  3964   0.105E-01    0.471E-02
RMM:  27    -0.108302301032E+03   -0.14653E-02   -0.97198E-04  3988   0.135E-01    0.739E-02
RMM:  28    -0.108302748901E+03   -0.44787E-03   -0.38384E-04  3958   0.793E-02    0.164E-02
RMM:  29    -0.108303134356E+03   -0.38545E-03   -0.13493E-04  3584   0.214E-02    0.346E-02
RMM:  30    -0.108303254956E+03   -0.12060E-03   -0.34313E-05  2661   0.176E-02    0.273E-02
RMM:  31    -0.108303301664E+03   -0.46708E-04   -0.58197E-05  3365   0.177E-02    0.118E-02
RMM:  32    -0.108303511030E+03   -0.20937E-03   -0.50423E-05  3154   0.195E-02    0.223E-02
RMM:  33    -0.108303474912E+03    0.36118E-04   -0.91075E-06  2425   0.136E-02    0.120E-02
RMM:  34    -0.108303543703E+03   -0.68791E-04   -0.92501E-06  2391   0.759E-03    0.555E-03
RMM:  35    -0.108303596776E+03   -0.53073E-04   -0.43065E-06  2277   0.941E-03    0.767E-03
RMM:  36    -0.108303623324E+03   -0.26549E-04   -0.20692E-06  2326   0.581E-03    0.754E-03
RMM:  37    -0.108303702839E+03   -0.79514E-04   -0.78458E-06  2314   0.910E-03    0.898E-03
RMM:  38    -0.108303695517E+03    0.73219E-05   -0.17207E-06  2242   0.437E-03
   1 F= -.10830370E+03 E0= -.10830150E+03  d E =-.876646E-02
