 vasp.5.4.4.18Apr17-6-g9f103f2a35 (build Mar 06 2021 22:04:06) complex          
  
 executed on             LinuxIFC date 2024.03.06  14:29:20
 running on   16 total cores
 distrk:  each k-point on   16 cores,    1 groups
 distr:  one band on NCORES_PER_BAND=   1 cores,   16 groups


--------------------------------------------------------------------------------------------------------


 INCAR:
 POTCAR:    PAW_PBE Cu 22Jun2005                  

 ----------------------------------------------------------------------------- 
|                                                                             |
|           W    W    AA    RRRRR   N    N  II  N    N   GGGG   !!!           |
|           W    W   A  A   R    R  NN   N  II  NN   N  G    G  !!!           |
|           W    W  A    A  R    R  N N  N  II  N N  N  G       !!!           |
|           W WW W  AAAAAA  RRRRR   N  N N  II  N  N N  G  GGG   !            |
|           WW  WW  A    A  R   R   N   NN  II  N   NN  G    G                |
|           W    W  A    A  R    R  N    N  II  N    N   GGGG   !!!           |
|                                                                             |
|      For optimal performance we recommend to set                            |
|        NCORE= 4 - approx SQRT( number of cores)                             |
|      NCORE specifies how many cores store one orbital (NPAR=cpu/NCORE).     |
|      This setting can  greatly improve the performance of VASP for DFT.     |
|      The default,   NCORE=1            might be grossly inefficient         |
|      on modern multi-core architectures or massively parallel machines.     |
|      Do your own testing !!!!                                               |
|      Unfortunately you need to use the default for GW and RPA calculations. |
|      (for HF NCORE is supported but not extensively tested yet)             |
|                                                                             |
 ----------------------------------------------------------------------------- 

 POTCAR:    PAW_PBE Cu 22Jun2005                  
   VRHFIN =Cu: d10 p1                                                           
   LEXCH  = PE                                                                  
   EATOM  =  1390.9808 eV,  102.2342 Ry                                         
                                                                                
   TITEL  = PAW_PBE Cu 22Jun2005                                                
   LULTRA =        F    use ultrasoft PP ?                                      
   IUNSCR =        1    unscreen: 0-lin 1-nonlin 2-no                           
   RPACOR =    2.000    partial core radius                                     
   POMASS =   63.546; ZVAL   =   11.000    mass and valenz                      
   RCORE  =    2.300    outmost cutoff radius                                   
   RWIGS  =    2.200; RWIGS  =    1.164    wigner-seitz radius (au A)           
   ENMAX  =  295.446; ENMIN  =  221.585 eV                                      
   ICORE  =        3    local potential                                         
   LCOR   =        T    correct aug charges                                     
   LPAW   =        T    paw PP                                                  
   EAUG   =  586.980                                                            
   DEXC   =    0.000                                                            
   RMAX   =    2.344    core radius for proj-oper                               
   RAUG   =    1.300    factor for augmentation sphere                          
   RDEP   =    2.302    radius for radial grids                                 
   RDEPT  =    1.771    core radius for aug-charge                              
                                                                                
   Atomic configuration                                                         
    9 entries                                                                   
     n  l   j            E        occ.                                          
     1  0  0.50     -8850.2468   2.0000                                         
     2  0  0.50     -1062.3498   2.0000                                         
     2  1  1.50      -916.8226   6.0000                                         
     3  0  0.50      -114.6929   2.0000                                         
     3  1  1.50       -72.1325   6.0000                                         
     3  2  2.50        -5.0394  10.0000                                         
     4  0  0.50        -4.6097   1.0000                                         
     4  1  0.50        -4.0817   0.0000                                         
     4  3  2.50        -1.3606   0.0000                                         
   Description                                                                  
     l       E           TYP  RCUT    TYP  RCUT                                 
     2     -5.0393973     23  2.200                                             
     2     10.8846608     23  2.200                                             
     0     -4.6097109     23  2.200                                             
     0      8.2520465     23  2.200                                             
     1     -2.7211652     23  2.200                                             
     1     21.7055443     23  2.200                                             
     3      2.7211652     23  2.300                                             
  local pseudopotential read in
  partial core-charges read in
  partial kinetic energy density read in
  atomic valenz-charges read in
  non local Contribution for L=           2  read in
    real space projection operators read in
  non local Contribution for L=           2  read in
    real space projection operators read in
  non local Contribution for L=           0  read in
    real space projection operators read in
  non local Contribution for L=           0  read in
    real space projection operators read in
  non local Contribution for L=           1  read in
    real space projection operators read in
  non local Contribution for L=           1  read in
    real space projection operators read in
    PAW grid and wavefunctions read in
 
   number of l-projection  operators is LMAX  =           6
   number of lm-projection operators is LMMAX =          18
 
 Optimization of the real space projectors (new method)

 maximal supplied QI-value         = 16.25
 optimisation between [QCUT,QGAM] = [ 11.86, 23.89] = [ 39.41,159.82] Ry 
 Optimized for a Real-space Cutoff    1.37 Angstroem

   l    n(q)    QCUT    max X(q) W(low)/X(q) W(high)/X(q)  e(spline) 
   2      9    11.864     4.610    0.26E-03    0.41E-03    0.20E-06
   2      9    11.864     8.522    0.43E-03    0.67E-03    0.35E-06
   0     10    11.864    51.609    0.83E-04    0.11E-03    0.13E-06
   0     10    11.864    27.747    0.78E-04    0.11E-03    0.12E-06
   1      9    11.864    20.408    0.13E-03    0.42E-04    0.22E-06
   1      9    11.864    13.425    0.12E-03    0.35E-04    0.19E-06

 ----------------------------------------------------------------------------- 
|                                                                             |
|  ADVICE TO THIS USER RUNNING 'VASP/VAMP'   (HEAR YOUR MASTER'S VOICE ...):  |
|                                                                             |
|      You enforced a specific xc-type in the INCAR file,                     |
|      a different type was found on the POTCAR file                          |
|          I HOPE YOU KNOW, WHAT YOU ARE  DOING                               |
|                                                                             |
 ----------------------------------------------------------------------------- 

  PAW_PBE Cu 22Jun2005                  :
 energy of atom  1       EATOM=-1390.9808
 kinetic energy error for atom=    0.0036 (will be added to EATOM!!)
 
 
 POSCAR: Cu                                      
  positions in direct lattice
  velocities in cartesian coordinates
 exchange correlation table for  LEXCH =        9
   RHO(1)=    0.500       N(1)  =     2000
   RHO(2)=  100.500       N(2)  =     4000

 VTST: version 3.2, (02/03/18)

 CHAIN: initializing optimizer
 
 OPT: Using VASP Dynamics algorithm
 CHAIN: Read ICHAIN            0
 
 POSCAR: Cu                                      
  positions in direct lattice
  velocities in cartesian coordinates
 


--------------------------------------------------------------------------------------------------------


 ion  position               nearest neighbor table
   1  0.167  0.167  0.000-   3 2.57   7 2.57   4 2.57   2 2.57  10 2.57  11 2.57  13 2.57  14 2.57

   2  0.500  0.167  0.000-   8 2.57   5 2.57   1 2.57  11 2.57  14 2.57  12 2.57  15 2.57   3 2.57

   3  0.833  0.167  0.000-   1 2.57   9 2.57  10 2.57  13 2.57   6 2.57  12 2.57  15 2.57   2 2.57

   4  0.167  0.500  0.000-   6 2.57   5 2.57   1 2.57  13 2.57  14 2.57  16 2.57  17 2.57   7 2.57

   5  0.500  0.500  0.000-  14 2.57   4 2.57   2 2.57  15 2.57  17 2.57  18 2.57   6 2.57   8 2.57

   6  0.833  0.500  0.000-   4 2.57  13 2.57  16 2.57   3 2.57  15 2.57  18 2.57   5 2.57   9 2.57

   7  0.167  0.833  0.000-   1 2.57   9 2.57  10 2.57  11 2.57   8 2.57  16 2.57  17 2.57   4 2.57

   8  0.500  0.833  0.000-   2 2.57  11 2.57  12 2.57   7 2.57  17 2.57  18 2.57   5 2.57   9 2.57

   9  0.833  0.833  0.000-  10 2.57   7 2.57   3 2.57  12 2.57  16 2.57  18 2.57   6 2.57   8 2.57

  10  0.000  0.000  0.082-   9 2.57  12 2.57  16 2.57   7 2.57   3 2.57   1 2.57  13 2.57  11 2.57
                            25 2.62  19 2.63  27 2.65  21 2.65
  11  0.333  0.000  0.082-  17 2.57   8 2.57   7 2.57  12 2.57   2 2.57   1 2.57  14 2.57  10 2.57
                            25 2.62  19 2.62  26 2.63  20 2.63
  12  0.667  0.000  0.082-  10 2.57  18 2.57   9 2.57   8 2.57  11 2.57   3 2.57   2 2.57  15 2.57
                            20 2.63  26 2.63  27 2.65  21 2.66
  13  0.000  0.333  0.082-  15 2.57   6 2.57   3 2.57  16 2.57   4 2.57   1 2.57  10 2.57  14 2.57
                            22 2.58  24 2.62  19 2.62  21 2.63
  14  0.333  0.333  0.082-  23 2.55   5 2.57  17 2.57  15 2.57   4 2.57   2 2.57   1 2.57  13 2.57
                            11 2.57  22 2.57  19 2.61  20 2.62
  15  0.667  0.333  0.082-  23 2.56  13 2.57  18 2.57  14 2.57   6 2.57   5 2.57   3 2.57   2 2.57
                            12 2.57  24 2.60  20 2.61  21 2.63
  16  0.000  0.667  0.082-  10 2.57  18 2.57   9 2.57   6 2.57  13 2.57   7 2.57   4 2.57  17 2.57
                            22 2.58  24 2.61  25 2.62  27 2.63
  17  0.333  0.667  0.082-  23 2.55  11 2.57  18 2.57  14 2.57   8 2.57   5 2.57   7 2.57   4 2.57
                            16 2.57  22 2.57  25 2.61  26 2.61
  18  0.667  0.667  0.082-  23 2.56  16 2.57  12 2.57  17 2.57  15 2.57   9 2.57   6 2.57   8 2.57
                             5 2.57  24 2.60  26 2.62  27 2.63
  19  0.167  0.168  0.166-  22 2.56  28 2.56  20 2.56  29 2.57  21 2.57  25 2.58  31 2.60  14 2.61
                            13 2.62  11 2.62  10 2.63  32 2.63
  20  0.500  0.169  0.167-  23 2.55  19 2.56  30 2.57  29 2.57  21 2.57  26 2.60  32 2.61  15 2.61
                            14 2.62  33 2.62  12 2.63  11 2.63
  21  0.834  0.170  0.168-  24 2.54  28 2.56  30 2.56  20 2.57  19 2.57  31 2.58  33 2.61  27 2.61
                            13 2.63  15 2.63  10 2.65  12 2.66
  22  0.168  0.500  0.164-  23 2.54  19 2.56  25 2.56  14 2.57  17 2.57  13 2.58  16 2.58  24 2.59
                            31 2.62  34 2.63  35 2.66  32 2.67
  23  0.498  0.500  0.162-  22 2.54  14 2.55  17 2.55  20 2.55  26 2.55  15 2.56  18 2.56  24 2.57
                            32 2.67  35 2.67  36 2.68  33 2.68
  24  0.832  0.501  0.166-  21 2.54  27 2.55  23 2.57  22 2.59  18 2.60  15 2.60  34 2.61  16 2.61
                            31 2.61  13 2.62  33 2.63  36 2.63
  25  0.167  0.833  0.166-  26 2.56  22 2.56  29 2.57  27 2.57  28 2.57  19 2.58  34 2.59  17 2.61
                            16 2.62  11 2.62  10 2.62  35 2.63
  26  0.500  0.831  0.167-  23 2.55  29 2.56  25 2.56  27 2.57  30 2.58  20 2.60  36 2.61  17 2.61
                            18 2.62  35 2.62  11 2.63  12 2.63
  27  0.833  0.831  0.168-  24 2.55  30 2.56  28 2.56  25 2.57  34 2.57  26 2.57  36 2.60  21 2.61
                            16 2.63  18 2.63  10 2.65  12 2.65
  28  0.001  0.001  0.248-  21 2.56  29 2.56  27 2.56  19 2.56  25 2.57  30 2.58  31 2.58  34 2.58

  29  0.334  0.999  0.248-  26 2.56  30 2.56  28 2.56  25 2.57  20 2.57  19 2.57  32 2.58  35 2.58

  30  0.667  0.001  0.248-  21 2.56  27 2.56  29 2.56  20 2.57  26 2.58  28 2.58  36 2.58  33 2.58

  31  0.002  0.336  0.250-  34 2.54  32 2.56  21 2.58  28 2.58  33 2.60  19 2.60  24 2.61  22 2.62

  32  0.335  0.334  0.252-  33 2.54  35 2.54  31 2.56  29 2.58  20 2.61  19 2.63  22 2.67  23 2.67

  33  0.665  0.336  0.252-  32 2.54  36 2.54  30 2.58  31 2.60  21 2.61  20 2.62  24 2.63  23 2.68

  34  0.000  0.665  0.249-  31 2.54  35 2.57  27 2.57  28 2.58  36 2.59  25 2.59  24 2.61  22 2.63

  35  0.334  0.665  0.252-  32 2.54  36 2.55  34 2.57  29 2.58  26 2.62  25 2.63  22 2.66  23 2.67

  36  0.664  0.666  0.251-  33 2.54  35 2.55  30 2.58  34 2.59  27 2.60  26 2.61  24 2.63  23 2.68

 

IMPORTANT INFORMATION: All symmetrisations will be switched off!
NOSYMM: (Re-)initialisation of all symmetry stuff for point group C_1.

 
 
 KPOINTS: KPOINTS created by Atomic Simulation Env

Automatic generation of k-mesh.
Space group operators:
 irot       det(A)        alpha          n_x          n_y          n_z        tau_x        tau_y        tau_z
    1     1.000000     0.000001     1.000000     0.000000     0.000000     0.000000     0.000000     0.000000
 
 Subroutine IBZKPT returns following result:
 ===========================================
 
 Found      8 irreducible k-points:
 
 Following reciprocal coordinates:
            Coordinates               Weight
  0.125000  0.125000  0.000000      2.000000
  0.375000  0.125000  0.000000      2.000000
 -0.375000  0.125000  0.000000      2.000000
 -0.125000  0.125000  0.000000      2.000000
  0.125000  0.375000  0.000000      2.000000
  0.375000  0.375000  0.000000      2.000000
 -0.375000  0.375000  0.000000      2.000000
 -0.125000  0.375000  0.000000      2.000000
 
 Following cartesian coordinates:
            Coordinates               Weight
  0.016233  0.016233  0.000000      2.000000
  0.048699  0.016233  0.000000      2.000000
 -0.048699  0.016233  0.000000      2.000000
 -0.016233  0.016233  0.000000      2.000000
  0.016233  0.048699  0.000000      2.000000
  0.048699  0.048699  0.000000      2.000000
 -0.048699  0.048699  0.000000      2.000000
 -0.016233  0.048699  0.000000      2.000000
 


--------------------------------------------------------------------------------------------------------




 Dimension of arrays:
   k-points           NKPTS =      8   k-points in BZ     NKDIM =      8   number of bands    NBANDS=    240
   number of dos      NEDOS =    301   number of ions     NIONS =     36
   non local maximal  LDIM  =      6   non local SUM 2l+1 LMDIM =     18
   total plane-waves  NPLWV = 294912
   max r-space proj   IRMAX =   2468   max aug-charges    IRDMAX=   6671
   dimension x,y,z NGX =    48 NGY =   48 NGZ =  128
   dimension x,y,z NGXF=    96 NGYF=   96 NGZF=  256
   support grid    NGXF=    96 NGYF=   96 NGZF=  256
   ions per type =              36
   NGX,Y,Z   is equivalent  to a cutoff of  10.36, 10.36,  9.56 a.u.
   NGXF,Y,Z  is equivalent  to a cutoff of  20.73, 20.73, 19.12 a.u.

 SYSTEM =  unknown system                          
 POSCAR =  Cu                                      

 Startparameter for this run:
   NWRITE =      2    write-flag & timer
   PREC   = normal    normal or accurate (medium, high low for compatibility)
   ISTART =      0    job   : 0-new  1-cont  2-samecut
   ICHARG =      2    charge: 1-file 2-atom 10-const
   ISPIN  =      1    spin polarized calculation?
   LNONCOLLINEAR =      F non collinear calculations
   LSORBIT =      F    spin-orbit coupling
   INIWAV =      1    electr: 0-lowe 1-rand  2-diag
   LASPH  =      F    aspherical Exc in radial PAW
   METAGGA=      F    non-selfconsistent MetaGGA calc.

 Electronic Relaxation 1
   ENCUT  =  544.0 eV  39.98 Ry    6.32 a.u.  14.64 14.64 42.33*2*pi/ulx,y,z
   ENINI  =  544.0     initial cutoff
   ENAUG  =  587.0 eV  augmentation charge cutoff
   NELM   =    400;   NELMIN=  2; NELMDL=-12     # of ELM steps 
   EDIFF  = 0.1E-04   stopping-criterion for ELM
   LREAL  =      T    real-space projection
   NLSPLINE    = F    spline interpolate recip. space projectors
   LCOMPAT=      F    compatible to vasp.4.4
   GGA_COMPAT  = T    GGA compatible to vasp.4.4-vasp.4.6
   LMAXPAW     = -100 max onsite density
   LMAXMIX     =    2 max onsite mixed and CHGCAR
   VOSKOWN=      1    Vosko Wilk Nusair interpolation
   ROPT   =   -0.00050
 Ionic relaxation
   EDIFFG = -.5E-01   stopping-criterion for IOM
   NSW    =      0    number of steps for IOM
   NBLOCK =      1;   KBLOCK =      1    inner block; outer block 
   IBRION =     -1    ionic relax: 0-MD 1-quasi-New 2-CG
   NFREE  =      0    steps in history (QN), initial steepest desc. (CG)
   ISIF   =      2    stress and relaxation
   IWAVPR =     10    prediction:  0-non 1-charg 2-wave 3-comb
   ISYM   =      0    0-nonsym 1-usesym 2-fastsym
   LCORR  =      T    Harris-Foulkes like correction to forces

   POTIM  = 0.5000    time-step for ionic-motion
   TEIN   =    0.0    initial temperature
   TEBEG  =    0.0;   TEEND  =   0.0 temperature during run
   SMASS  =  -3.00    Nose mass-parameter (am)
   estimated Nose-frequenzy (Omega)   =  0.10E-29 period in steps =****** mass=  -0.136E-26a.u.
   SCALEE = 1.0000    scale energy and forces
   NPACO  =    256;   APACO  = 16.0  distance and # of slots for P.C.
   PSTRESS=    0.0 pullay stress

  Mass of Ions in am
   POMASS =  63.55
  Ionic Valenz
   ZVAL   =  11.00
  Atomic Wigner-Seitz radii
   RWIGS  =  -1.00
  virtual crystal weights 
   VCA    =   1.00
   NELECT =     396.0000    total number of electrons
   NUPDOWN=      -1.0000    fix difference up-down

 DOS related values:
   EMIN   =  10.00;   EMAX   =-10.00  energy-range for DOS
   EFERMI =   0.00
   ISMEAR =     2;   SIGMA  =   0.20  broadening in eV -4-tet -1-fermi 0-gaus

 Electronic relaxation 2 (details)
   IALGO  =     48    algorithm
   LDIAG  =      T    sub-space diagonalisation (order eigenvalues)
   LSUBROT=      F    optimize rotation matrix (better conditioning)
   TURBO    =      0    0=normal 1=particle mesh
   IRESTART =      0    0=no restart 2=restart with 2 vectors
   NREBOOT  =      0    no. of reboots
   NMIN     =      0    reboot dimension
   EREF     =   0.00    reference energy to select bands
   IMIX   =      4    mixing-type and parameters
     AMIX     =   0.40;   BMIX     =  1.00
     AMIX_MAG =   1.60;   BMIX_MAG =  1.00
     AMIN     =   0.10
     WC   =   100.;   INIMIX=   1;  MIXPRE=   1;  MAXMIX= -45

 Intra band minimization:
   WEIMIN = 0.0000     energy-eigenvalue tresh-hold
   EBREAK =  0.10E-07  absolut break condition
   DEPER  =   0.30     relativ break condition  

   TIME   =   0.40     timestep for ELM

  volume/ion in A,a.u.               =      36.66       247.42
  Fermi-wavevector in a.u.,A,eV,Ry     =   1.095949  2.071043 16.342009  1.201104
  Thomas-Fermi vector in A             =   2.232282
 
 Write flags
   LWAVE        =      F    write WAVECAR
   LDOWNSAMPLE  =      F    k-point downsampling of WAVECAR
   LCHARG       =      F    write CHGCAR
   LVTOT        =      F    write LOCPOT, total local potential
   LVHAR        =      T    write LOCPOT, Hartree potential only
   LELF         =      F    write electronic localiz. function (ELF)
   LORBIT       =      0    0 simple, 1 ext, 2 COOP (PROOUT), +10 PAW based schemes


 Dipole corrections
   LMONO  =      F    monopole corrections only (constant potential shift)
   LDIPOL =      T    correct potential (dipole corrections)
   IDIPOL =      3    1-x, 2-y, 3-z, 4-all directions 
   EPSILON=  1.0000000 bulk dielectric constant

   EFIELD =  0.5000000 eV/A    external electric field

 Exchange correlation treatment:
   GGA     =    RP    GGA type
   LEXCH   =     9    internal setting for exchange type
   VOSKOWN=      1    Vosko Wilk Nusair interpolation
   LHFCALC =     F    Hartree Fock is set to
   LHFONE  =     F    Hartree Fock one center treatment
   AEXX    =    0.0000 exact exchange contribution

 Linear response parameters
   LEPSILON=     F    determine dielectric tensor
   LRPA    =     F    only Hartree local field effects (RPA)
   LNABLA  =     F    use nabla operator in PAW spheres
   LVEL    =     F    velocity operator in full k-point grid
   LINTERFAST=   F  fast interpolation
   KINTER  =     0    interpolate to denser k-point grid
   CSHIFT  =0.1000    complex shift for real part using Kramers Kronig
   OMEGAMAX=  -1.0    maximum frequency
   DEG_THRESHOLD= 0.2000000E-02 threshold for treating states as degnerate
   RTIME   =   -0.100 relaxation time in fs
  (WPLASMAI=    0.000 imaginary part of plasma frequency in eV, 0.658/RTIME)
   DFIELD  = 0.0000000 0.0000000 0.0000000 field for delta impulse in time
 
 Orbital magnetization related:
   ORBITALMAG=     F  switch on orbital magnetization
   LCHIMAG   =     F  perturbation theory with respect to B field
   DQ        =  0.001000  dq finite difference perturbation B field
   LLRAUG    =     F  two centre corrections for induced B field



--------------------------------------------------------------------------------------------------------


 Static calculation
 charge density and potential will be updated during run
 non-spin polarized calculation
 RMM-DIIS sequential band-by-band
 perform sub-space diagonalisation
    before iterative eigenvector-optimisation
 modified Broyden-mixing scheme, WC =      100.0
 initial mixing is a Kerker type mixing with AMIX =  0.4000 and BMIX =      1.0000
 Hartree-type preconditioning will be used
 using additional bands           42
 real space projection scheme for non local part
 use partial core corrections
 calculate Harris-corrections to forces 
   (improved forces if not selfconsistent)
 use gradient corrections 
 use of overlap-Matrix (Vanderbilt PP)
 Methfessel and Paxton  Order N= 2 SIGMA  =   0.20


--------------------------------------------------------------------------------------------------------


  energy-cutoff  :      544.00
  volume of cell :     1319.92
      direct lattice vectors                 reciprocal lattice vectors
     7.700375000  0.000000000  0.000000000     0.129863805  0.000000000  0.000000000
     0.000000000  7.700375000  0.000000000     0.000000000  0.129863805  0.000000000
     0.000000000  0.000000000 22.259998000     0.000000000  0.000000000  0.044923634

  length of vectors
     7.700375000  7.700375000 22.259998000     0.129863805  0.129863805  0.044923634


 
 k-points in units of 2pi/SCALE and weight: KPOINTS created by Atomic Simulation Env
   0.01623298  0.01623298  0.00000000       0.125
   0.04869893  0.01623298  0.00000000       0.125
  -0.04869893  0.01623298  0.00000000       0.125
  -0.01623298  0.01623298  0.00000000       0.125
   0.01623298  0.04869893  0.00000000       0.125
   0.04869893  0.04869893  0.00000000       0.125
  -0.04869893  0.04869893  0.00000000       0.125
  -0.01623298  0.04869893  0.00000000       0.125
 
 k-points in reciprocal lattice and weights: KPOINTS created by Atomic Simulation Env
   0.12500000  0.12500000  0.00000000       0.125
   0.37500000  0.12500000  0.00000000       0.125
  -0.37500000  0.12500000  0.00000000       0.125
  -0.12500000  0.12500000  0.00000000       0.125
   0.12500000  0.37500000  0.00000000       0.125
   0.37500000  0.37500000  0.00000000       0.125
  -0.37500000  0.37500000  0.00000000       0.125
  -0.12500000  0.37500000  0.00000000       0.125
 
 position of ions in fractional coordinates (direct lattice) 
   0.16666708  0.16666708  0.00000000
   0.50000110  0.16666708  0.00000000
   0.83333526  0.16666708  0.00000000
   0.16666708  0.50000110  0.00000000
   0.50000110  0.50000110  0.00000000
   0.83333526  0.50000110  0.00000000
   0.16666708  0.83333526  0.00000000
   0.50000110  0.83333526  0.00000000
   0.83333526  0.83333526  0.00000000
   0.00000000  0.00000000  0.08153640
   0.33333416  0.00000000  0.08153640
   0.66666818  0.00000000  0.08153640
   0.00000000  0.33333416  0.08153640
   0.33333416  0.33333416  0.08153640
   0.66666818  0.33333416  0.08153640
   0.00000000  0.66666818  0.08153640
   0.33333416  0.66666818  0.08153640
   0.66666818  0.66666818  0.08153640
   0.16749132  0.16755171  0.16633056
   0.50023135  0.16854569  0.16659426
   0.83382822  0.17046235  0.16772441
   0.16775183  0.49998007  0.16359364
   0.49814808  0.49989721  0.16238928
   0.83170417  0.50060588  0.16558160
   0.16698693  0.83269425  0.16625136
   0.49959450  0.83143159  0.16657733
   0.83341318  0.83126432  0.16761520
   0.00132513  0.00111748  0.24773960
   0.33395555  0.99946665  0.24757473
   0.66657143  0.00089502  0.24789836
   0.00244988  0.33616610  0.24967743
   0.33544626  0.33422567  0.25154063
   0.66548343  0.33587572  0.25168187
   0.00045024  0.66549733  0.24947307
   0.33368154  0.66454491  0.25157729
   0.66443608  0.66598536  0.25129167
 
 position of ions in cartesian coordinates  (Angst):
   1.28339900  1.28339900  0.00000000
   3.85019600  1.28339900  0.00000000
   6.41699400  1.28339900  0.00000000
   1.28339900  3.85019600  0.00000000
   3.85019600  3.85019600  0.00000000
   6.41699400  3.85019600  0.00000000
   1.28339900  6.41699400  0.00000000
   3.85019600  6.41699400  0.00000000
   6.41699400  6.41699400  0.00000000
   0.00000000  0.00000000  1.81500000
   2.56679800  0.00000000  1.81500000
   5.13359500  0.00000000  1.81500000
   0.00000000  2.56679800  1.81500000
   2.56679800  2.56679800  1.81500000
   5.13359500  2.56679800  1.81500000
   0.00000000  5.13359500  1.81500000
   2.56679800  5.13359500  1.81500000
   5.13359500  5.13359500  1.81500000
   1.28974600  1.29021100  3.70251800
   3.85196900  1.29786500  3.70838800
   6.42079000  1.31262400  3.73354500
   1.29175200  3.85003400  3.64159400
   3.83592700  3.84939600  3.61478500
   6.40443400  3.85485300  3.68584600
   1.28586200  6.41205800  3.70075500
   3.84706500  6.40233500  3.70801100
   6.41759400  6.40104700  3.73111400
   0.01020400  0.00860500  5.51468300
   2.57158300  7.69626800  5.51101300
   5.13285000  0.00689200  5.51821700
   0.01886500  2.58860500  5.55781900
   2.58306200  2.57366300  5.59929400
   5.12447200  2.58636900  5.60243800
   0.00346700  5.12457900  5.55327000
   2.56947300  5.11724500  5.60011000
   5.11640700  5.12833700  5.59375200
 


--------------------------------------------------------------------------------------------------------


 k-point  1 :   0.1250 0.1250 0.0000  plane waves:   38041
 k-point  2 :   0.3750 0.1250 0.0000  plane waves:   38040
 k-point  3 :  -0.3750 0.1250 0.0000  plane waves:   38040
 k-point  4 :  -0.1250 0.1250 0.0000  plane waves:   38041
 k-point  5 :   0.1250 0.3750 0.0000  plane waves:   38040
 k-point  6 :   0.3750 0.3750 0.0000  plane waves:   37996
 k-point  7 :  -0.3750 0.3750 0.0000  plane waves:   37996
 k-point  8 :  -0.1250 0.3750 0.0000  plane waves:   38040

 maximum and minimum number of plane-waves per node :     38041    37996

 maximum number of plane-waves:     38041
 maximum index in each direction: 
   IXMAX=   15   IYMAX=   14   IZMAX=   42
   IXMIN=  -15   IYMIN=  -15   IZMIN=  -42


 serial   3D FFT for wavefunctions
 parallel 3D FFT for charge:
    minimum data exchange during FFTs selected (reduces bandwidth)


 total amount of memory used by VASP MPI-rank0   144874. kBytes
=======================================================================

   base      :      30000. kBytes
   nonlr-proj:      14881. kBytes
   fftplans  :       6175. kBytes
   grid      :      18948. kBytes
   one-center:        559. kBytes
   wavefun   :      74311. kBytes
 
     INWAV:  cpu time    0.0001: real time    0.0001
 Broyden mixing: mesh for mixing (old mesh)
   NGX = 29   NGY = 29   NGZ = 85
  (NGX  = 96   NGY  = 96   NGZ  =256)
  gives a total of  71485 points

 initial charge density was supplied:
 charge density of overlapping atoms calculated
 number of electron     396.0000000 magnetization 
 keeping initial charge density in first step


--------------------------------------------------------------------------------------------------------


 Maximum index for non-local projection operator         2371
 Maximum index for augmentation-charges          404 (set IRDMAX)


--------------------------------------------------------------------------------------------------------


 First call to EWALD:  gamma=   0.162
 Maximum number of real-space cells 4x 4x 2
 Maximum number of reciprocal cells 2x 2x 5

    FEWALD:  cpu time    0.0017: real time    0.0017


--------------------------------------- Iteration      1(   1)  ---------------------------------------


    POTLOK:  cpu time    0.1184: real time    0.1223
    SETDIJ:  cpu time    0.0062: real time    0.0062
    EDDIAG:  cpu time    3.5809: real time    3.6273
  RMM-DIIS:  cpu time    5.9356: real time    5.9856
    ORTHCH:  cpu time    0.7050: real time    0.7099
       DOS:  cpu time    0.0014: real time    0.0014
    --------------------------------------------
      LOOP:  cpu time   10.3475: real time   10.4528

 eigenvalue-minimisations  :  1920
 total energy-change (2. order) : 0.3127665E+04  (-0.1584734E+05)
 number of electron     396.0000000 magnetization 
 augmentation part      396.0000000 magnetization 

 DIPCOR: dipole corrections for dipol
 direction  3 min pos   164,
 dipolmoment           0.000000      0.000000      0.000069 electrons x Angstroem
 Tr[quadrupol]     -4128.493775

 energy correction for charged system         0.000000 eV
 dipol+quadrupol energy correction           -0.000000 eV
 added-field ion interaction        -54.717225 eV  (added to PSCEN)


 Free energy of the ion-electron system (eV)
  ---------------------------------------------------
  alpha Z        PSCENC =       663.35537132
  Ewald energy   TEWEN  =    164226.44806453
  -Hartree energ DENC   =   -212025.95640762
  -exchange      EXHF   =         0.00000000
  -V(xc)+E(xc)   XCENC  =      1613.73814842
  PAW double counting   =     44243.50493509   -48017.47383163
  entropy T*S    EENTRO =        -0.01852199
  eigenvalues    EBANDS =      2386.14307669
  atomic energy  EATOM  =     50037.92390023
  Solvation  Ediel_sol  =         0.00000000
  ---------------------------------------------------
  free energy    TOTEN  =      3127.66473504 eV

  energy without entropy =     3127.68325703  energy(sigma->0) =     3127.66936554


--------------------------------------------------------------------------------------------------------




--------------------------------------- Iteration      1(   2)  ---------------------------------------


    EDDIAG:  cpu time    3.1196: real time    3.1488
  RMM-DIIS:  cpu time    5.8738: real time    5.9227
    ORTHCH:  cpu time    0.7191: real time    0.7240
       DOS:  cpu time    0.0010: real time    0.0010
    --------------------------------------------
      LOOP:  cpu time    9.7135: real time    9.7966

 eigenvalue-minimisations  :  1920
 total energy-change (2. order) :-0.2420333E+04  (-0.2732007E+04)
 number of electron     396.0000000 magnetization 
 augmentation part      396.0000000 magnetization 

 DIPCOR: dipole corrections for dipol
 direction  3 min pos   164,
 dipolmoment           0.000000      0.000000      0.000069 electrons x Angstroem
 Tr[quadrupol]     -4128.493775

 energy correction for charged system         0.000000 eV
 dipol+quadrupol energy correction           -0.000000 eV
 added-field ion interaction        -54.717225 eV  (added to PSCEN)


 Free energy of the ion-electron system (eV)
  ---------------------------------------------------
  alpha Z        PSCENC =       663.35537132
  Ewald energy   TEWEN  =    164226.44806453
  -Hartree energ DENC   =   -212025.95640762
  -exchange      EXHF   =         0.00000000
  -V(xc)+E(xc)   XCENC  =      1613.73814842
  PAW double counting   =     44243.50493509   -48017.47383163
  entropy T*S    EENTRO =        -0.04143268
  eigenvalues    EBANDS =       -34.16656375
  atomic energy  EATOM  =     50037.92390023
  Solvation  Ediel_sol  =         0.00000000
  ---------------------------------------------------
  free energy    TOTEN  =       707.33218391 eV

  energy without entropy =      707.37361659  energy(sigma->0) =      707.34254208


--------------------------------------------------------------------------------------------------------




--------------------------------------- Iteration      1(   3)  ---------------------------------------


    EDDIAG:  cpu time    3.2099: real time    3.2397
  RMM-DIIS:  cpu time    5.9550: real time    6.0043
    ORTHCH:  cpu time    0.7153: real time    0.7206
       DOS:  cpu time    0.0010: real time    0.0010
    --------------------------------------------
      LOOP:  cpu time    9.8812: real time    9.9656

 eigenvalue-minimisations  :  1920
 total energy-change (2. order) :-0.5358013E+03  (-0.5439616E+03)
 number of electron     396.0000000 magnetization 
 augmentation part      396.0000000 magnetization 

 DIPCOR: dipole corrections for dipol
 direction  3 min pos   164,
 dipolmoment           0.000000      0.000000      0.000069 electrons x Angstroem
 Tr[quadrupol]     -4128.493775

 energy correction for charged system         0.000000 eV
 dipol+quadrupol energy correction           -0.000000 eV
 added-field ion interaction        -54.717225 eV  (added to PSCEN)


 Free energy of the ion-electron system (eV)
  ---------------------------------------------------
  alpha Z        PSCENC =       663.35537132
  Ewald energy   TEWEN  =    164226.44806453
  -Hartree energ DENC   =   -212025.95640762
  -exchange      EXHF   =         0.00000000
  -V(xc)+E(xc)   XCENC  =      1613.73814842
  PAW double counting   =     44243.50493509   -48017.47383163
  entropy T*S    EENTRO =         0.00652897
  eigenvalues    EBANDS =      -570.01582209
  atomic energy  EATOM  =     50037.92390023
  Solvation  Ediel_sol  =         0.00000000
  ---------------------------------------------------
  free energy    TOTEN  =       171.53088723 eV

  energy without entropy =      171.52435825  energy(sigma->0) =      171.52925498


--------------------------------------------------------------------------------------------------------




--------------------------------------- Iteration      1(   4)  ---------------------------------------


    EDDIAG:  cpu time    3.1542: real time    3.1832
  RMM-DIIS:  cpu time    4.6944: real time    4.7315
    ORTHCH:  cpu time    0.6922: real time    0.6970
       DOS:  cpu time    0.0010: real time    0.0010
    --------------------------------------------
      LOOP:  cpu time    8.5418: real time    8.6126

 eigenvalue-minimisations  :  1920
 total energy-change (2. order) :-0.2145431E+03  (-0.9458806E+02)
 number of electron     396.0000000 magnetization 
 augmentation part      396.0000000 magnetization 

 DIPCOR: dipole corrections for dipol
 direction  3 min pos   164,
 dipolmoment           0.000000      0.000000      0.000069 electrons x Angstroem
 Tr[quadrupol]     -4128.493775

 energy correction for charged system         0.000000 eV
 dipol+quadrupol energy correction           -0.000000 eV
 added-field ion interaction        -54.717225 eV  (added to PSCEN)


 Free energy of the ion-electron system (eV)
  ---------------------------------------------------
  alpha Z        PSCENC =       663.35537132
  Ewald energy   TEWEN  =    164226.44806453
  -Hartree energ DENC   =   -212025.95640762
  -exchange      EXHF   =         0.00000000
  -V(xc)+E(xc)   XCENC  =      1613.73814842
  PAW double counting   =     44243.50493509   -48017.47383163
  entropy T*S    EENTRO =         0.00820815
  eigenvalues    EBANDS =      -784.56060794
  atomic energy  EATOM  =     50037.92390023
  Solvation  Ediel_sol  =         0.00000000
  ---------------------------------------------------
  free energy    TOTEN  =       -43.01221945 eV

  energy without entropy =      -43.02042760  energy(sigma->0) =      -43.01427149


--------------------------------------------------------------------------------------------------------




--------------------------------------- Iteration      1(   5)  ---------------------------------------


    EDDIAG:  cpu time    2.9353: real time    2.9610
  RMM-DIIS:  cpu time    5.8702: real time    5.9184
    ORTHCH:  cpu time    0.7109: real time    0.7161
       DOS:  cpu time    0.0010: real time    0.0010
    --------------------------------------------
      LOOP:  cpu time    9.5174: real time    9.5966

 eigenvalue-minimisations  :  1920
 total energy-change (2. order) :-0.5564970E+02  (-0.3566471E+02)
 number of electron     396.0000000 magnetization 
 augmentation part      396.0000000 magnetization 

 DIPCOR: dipole corrections for dipol
 direction  3 min pos   164,
 dipolmoment           0.000000      0.000000      0.000069 electrons x Angstroem
 Tr[quadrupol]     -4128.493775

 energy correction for charged system         0.000000 eV
 dipol+quadrupol energy correction           -0.000000 eV
 added-field ion interaction        -54.717225 eV  (added to PSCEN)


 Free energy of the ion-electron system (eV)
  ---------------------------------------------------
  alpha Z        PSCENC =       663.35537132
  Ewald energy   TEWEN  =    164226.44806453
  -Hartree energ DENC   =   -212025.95640762
  -exchange      EXHF   =         0.00000000
  -V(xc)+E(xc)   XCENC  =      1613.73814842
  PAW double counting   =     44243.50493509   -48017.47383163
  entropy T*S    EENTRO =         0.03893842
  eigenvalues    EBANDS =      -840.24103778
  atomic energy  EATOM  =     50037.92390023
  Solvation  Ediel_sol  =         0.00000000
  ---------------------------------------------------
  free energy    TOTEN  =       -98.66191903 eV

  energy without entropy =      -98.70085744  energy(sigma->0) =      -98.67165363


--------------------------------------------------------------------------------------------------------




--------------------------------------- Iteration      1(   6)  ---------------------------------------


    EDDIAG:  cpu time    3.2345: real time    3.2637
  RMM-DIIS:  cpu time    5.9500: real time    5.9983
    ORTHCH:  cpu time    0.7006: real time    0.7057
       DOS:  cpu time    0.0010: real time    0.0010
    --------------------------------------------
      LOOP:  cpu time    9.8861: real time    9.9687

 eigenvalue-minimisations  :  1920
 total energy-change (2. order) :-0.2280275E+02  (-0.1738056E+02)
 number of electron     396.0000000 magnetization 
 augmentation part      396.0000000 magnetization 

 DIPCOR: dipole corrections for dipol
 direction  3 min pos   164,
 dipolmoment           0.000000      0.000000      0.000069 electrons x Angstroem
 Tr[quadrupol]     -4128.493775

 energy correction for charged system         0.000000 eV
 dipol+quadrupol energy correction           -0.000000 eV
 added-field ion interaction        -54.717225 eV  (added to PSCEN)


 Free energy of the ion-electron system (eV)
  ---------------------------------------------------
  alpha Z        PSCENC =       663.35537132
  Ewald energy   TEWEN  =    164226.44806453
  -Hartree energ DENC   =   -212025.95640762
  -exchange      EXHF   =         0.00000000
  -V(xc)+E(xc)   XCENC  =      1613.73814842
  PAW double counting   =     44243.50493509   -48017.47383163
  entropy T*S    EENTRO =        -0.00262139
  eigenvalues    EBANDS =      -863.00223293
  atomic energy  EATOM  =     50037.92390023
  Solvation  Ediel_sol  =         0.00000000
  ---------------------------------------------------
  free energy    TOTEN  =      -121.46467398 eV

  energy without entropy =     -121.46205259  energy(sigma->0) =     -121.46401863


--------------------------------------------------------------------------------------------------------




--------------------------------------- Iteration      1(   7)  ---------------------------------------


    EDDIAG:  cpu time    3.0123: real time    3.0389
  RMM-DIIS:  cpu time    4.7082: real time    4.7447
    ORTHCH:  cpu time    0.6908: real time    0.6959
       DOS:  cpu time    0.0010: real time    0.0010
    --------------------------------------------
      LOOP:  cpu time    8.4123: real time    8.4806

 eigenvalue-minimisations  :  1920
 total energy-change (2. order) :-0.1168178E+02  (-0.9736186E+01)
 number of electron     396.0000000 magnetization 
 augmentation part      396.0000000 magnetization 

 DIPCOR: dipole corrections for dipol
 direction  3 min pos   164,
 dipolmoment           0.000000      0.000000      0.000069 electrons x Angstroem
 Tr[quadrupol]     -4128.493775

 energy correction for charged system         0.000000 eV
 dipol+quadrupol energy correction           -0.000000 eV
 added-field ion interaction        -54.717225 eV  (added to PSCEN)


 Free energy of the ion-electron system (eV)
  ---------------------------------------------------
  alpha Z        PSCENC =       663.35537132
  Ewald energy   TEWEN  =    164226.44806453
  -Hartree energ DENC   =   -212025.95640762
  -exchange      EXHF   =         0.00000000
  -V(xc)+E(xc)   XCENC  =      1613.73814842
  PAW double counting   =     44243.50493509   -48017.47383163
  entropy T*S    EENTRO =         0.03032959
  eigenvalues    EBANDS =      -874.71695957
  atomic energy  EATOM  =     50037.92390023
  Solvation  Ediel_sol  =         0.00000000
  ---------------------------------------------------
  free energy    TOTEN  =      -133.14644964 eV

  energy without entropy =     -133.17677923  energy(sigma->0) =     -133.15403203


--------------------------------------------------------------------------------------------------------




--------------------------------------- Iteration      1(   8)  ---------------------------------------


    EDDIAG:  cpu time    3.0038: real time    3.0314
  RMM-DIIS:  cpu time    5.9803: real time    6.0270
    ORTHCH:  cpu time    0.7085: real time    0.7133
       DOS:  cpu time    0.0011: real time    0.0011
    --------------------------------------------
      LOOP:  cpu time    9.6936: real time    9.7727

 eigenvalue-minimisations  :  1920
 total energy-change (2. order) :-0.6252852E+01  (-0.5289678E+01)
 number of electron     396.0000000 magnetization 
 augmentation part      396.0000000 magnetization 

 DIPCOR: dipole corrections for dipol
 direction  3 min pos   164,
 dipolmoment           0.000000      0.000000      0.000069 electrons x Angstroem
 Tr[quadrupol]     -4128.493775

 energy correction for charged system         0.000000 eV
 dipol+quadrupol energy correction           -0.000000 eV
 added-field ion interaction        -54.717225 eV  (added to PSCEN)


 Free energy of the ion-electron system (eV)
  ---------------------------------------------------
  alpha Z        PSCENC =       663.35537132
  Ewald energy   TEWEN  =    164226.44806453
  -Hartree energ DENC   =   -212025.95640762
  -exchange      EXHF   =         0.00000000
  -V(xc)+E(xc)   XCENC  =      1613.73814842
  PAW double counting   =     44243.50493509   -48017.47383163
  entropy T*S    EENTRO =         0.04604104
  eigenvalues    EBANDS =      -880.98552317
  atomic energy  EATOM  =     50037.92390023
  Solvation  Ediel_sol  =         0.00000000
  ---------------------------------------------------
  free energy    TOTEN  =      -139.39930179 eV

  energy without entropy =     -139.44534283  energy(sigma->0) =     -139.41081205


--------------------------------------------------------------------------------------------------------




--------------------------------------- Iteration      1(   9)  ---------------------------------------


    EDDIAG:  cpu time    3.2227: real time    3.2544
  RMM-DIIS:  cpu time   15.2565: real time   15.3768
    ORTHCH:  cpu time    0.6800: real time    0.6848
       DOS:  cpu time    0.0011: real time    0.0011
    --------------------------------------------
      LOOP:  cpu time   19.1604: real time   19.3171

 eigenvalue-minimisations  :  5769
 total energy-change (2. order) :-0.6744583E+01  (-0.6331423E+01)
 number of electron     396.0000000 magnetization 
 augmentation part      396.0000000 magnetization 

 DIPCOR: dipole corrections for dipol
 direction  3 min pos   164,
 dipolmoment           0.000000      0.000000      0.000069 electrons x Angstroem
 Tr[quadrupol]     -4128.493775

 energy correction for charged system         0.000000 eV
 dipol+quadrupol energy correction           -0.000000 eV
 added-field ion interaction        -54.717225 eV  (added to PSCEN)


 Free energy of the ion-electron system (eV)
  ---------------------------------------------------
  alpha Z        PSCENC =       663.35537132
  Ewald energy   TEWEN  =    164226.44806453
  -Hartree energ DENC   =   -212025.95640762
  -exchange      EXHF   =         0.00000000
  -V(xc)+E(xc)   XCENC  =      1613.73814842
  PAW double counting   =     44243.50493509   -48017.47383163
  entropy T*S    EENTRO =         0.02203855
  eigenvalues    EBANDS =      -887.70610402
  atomic energy  EATOM  =     50037.92390023
  Solvation  Ediel_sol  =         0.00000000
  ---------------------------------------------------
  free energy    TOTEN  =      -146.14388513 eV

  energy without entropy =     -146.16592368  energy(sigma->0) =     -146.14939477


--------------------------------------------------------------------------------------------------------




--------------------------------------- Iteration      1(  10)  ---------------------------------------


    EDDIAG:  cpu time    3.2011: real time    3.2308
  RMM-DIIS:  cpu time   12.8953: real time   13.0005
    ORTHCH:  cpu time    0.7005: real time    0.7055
       DOS:  cpu time    0.0010: real time    0.0010
    --------------------------------------------
      LOOP:  cpu time   16.7980: real time   16.9378

 eigenvalue-minimisations  :  4288
 total energy-change (2. order) :-0.1940151E+00  (-0.2232847E+00)
 number of electron     396.0000000 magnetization 
 augmentation part      396.0000000 magnetization 

 DIPCOR: dipole corrections for dipol
 direction  3 min pos   164,
 dipolmoment           0.000000      0.000000      0.000069 electrons x Angstroem
 Tr[quadrupol]     -4128.493775

 energy correction for charged system         0.000000 eV
 dipol+quadrupol energy correction           -0.000000 eV
 added-field ion interaction        -54.717225 eV  (added to PSCEN)


 Free energy of the ion-electron system (eV)
  ---------------------------------------------------
  alpha Z        PSCENC =       663.35537132
  Ewald energy   TEWEN  =    164226.44806453
  -Hartree energ DENC   =   -212025.95640762
  -exchange      EXHF   =         0.00000000
  -V(xc)+E(xc)   XCENC  =      1613.73814842
  PAW double counting   =     44243.50493509   -48017.47383163
  entropy T*S    EENTRO =         0.04949783
  eigenvalues    EBANDS =      -887.92757843
  atomic energy  EATOM  =     50037.92390023
  Solvation  Ediel_sol  =         0.00000000
  ---------------------------------------------------
  free energy    TOTEN  =      -146.33790026 eV

  energy without entropy =     -146.38739809  energy(sigma->0) =     -146.35027472


--------------------------------------------------------------------------------------------------------




--------------------------------------- Iteration      1(  11)  ---------------------------------------


    EDDIAG:  cpu time    2.9014: real time    2.9262
  RMM-DIIS:  cpu time   16.0023: real time   16.1289
    ORTHCH:  cpu time    0.7091: real time    0.7140
       DOS:  cpu time    0.0010: real time    0.0010
    --------------------------------------------
      LOOP:  cpu time   19.6139: real time   19.7702

 eigenvalue-minimisations  :  5839
 total energy-change (2. order) :-0.9920651E-01  (-0.8361227E-01)
 number of electron     396.0000000 magnetization 
 augmentation part      396.0000000 magnetization 

 DIPCOR: dipole corrections for dipol
 direction  3 min pos   164,
 dipolmoment           0.000000      0.000000      0.000069 electrons x Angstroem
 Tr[quadrupol]     -4128.493775

 energy correction for charged system         0.000000 eV
 dipol+quadrupol energy correction           -0.000000 eV
 added-field ion interaction        -54.717225 eV  (added to PSCEN)


 Free energy of the ion-electron system (eV)
  ---------------------------------------------------
  alpha Z        PSCENC =       663.35537132
  Ewald energy   TEWEN  =    164226.44806453
  -Hartree energ DENC   =   -212025.95640762
  -exchange      EXHF   =         0.00000000
  -V(xc)+E(xc)   XCENC  =      1613.73814842
  PAW double counting   =     44243.50493509   -48017.47383163
  entropy T*S    EENTRO =         0.05009477
  eigenvalues    EBANDS =      -888.02738189
  atomic energy  EATOM  =     50037.92390023
  Solvation  Ediel_sol  =         0.00000000
  ---------------------------------------------------
  free energy    TOTEN  =      -146.43710677 eV

  energy without entropy =     -146.48720155  energy(sigma->0) =     -146.44963046


--------------------------------------------------------------------------------------------------------




--------------------------------------- Iteration      1(  12)  ---------------------------------------


    EDDIAG:  cpu time    3.2092: real time    3.2381
  RMM-DIIS:  cpu time   10.8719: real time   10.9602
    ORTHCH:  cpu time    0.6814: real time    0.6861
       DOS:  cpu time    0.0010: real time    0.0010
    CHARGE:  cpu time    0.7566: real time    0.7633
    MIXING:  cpu time    0.0070: real time    0.0071
    --------------------------------------------
      LOOP:  cpu time   15.5271: real time   15.6559

 eigenvalue-minimisations  :  4281
 total energy-change (2. order) :-0.1236474E-02  (-0.1024341E-02)
 number of electron     395.9998235 magnetization 
 augmentation part      233.6280173 magnetization 

 DIPCOR: dipole corrections for dipol
 direction  3 min pos   164,
 dipolmoment           0.000000      0.000000      0.000069 electrons x Angstroem
 Tr[quadrupol]     -4128.493775

 energy correction for charged system         0.000000 eV
 dipol+quadrupol energy correction           -0.000000 eV
 added-field ion interaction        -54.717225 eV  (added to PSCEN)


 Broyden mixing:
  rms(total) = 0.52265E+01    rms(broyden)= 0.52264E+01
  rms(prec ) = 0.64130E+01
  weight for this iteration     100.00

 Free energy of the ion-electron system (eV)
  ---------------------------------------------------
  alpha Z        PSCENC =       663.35537132
  Ewald energy   TEWEN  =    164226.44806453
  -Hartree energ DENC   =   -212025.95640762
  -exchange      EXHF   =         0.00000000
  -V(xc)+E(xc)   XCENC  =      1613.73814842
  PAW double counting   =     44243.50493509   -48017.47383163
  entropy T*S    EENTRO =         0.05007130
  eigenvalues    EBANDS =      -888.02859488
  atomic energy  EATOM  =     50037.92390023
  Solvation  Ediel_sol  =         0.00000000
  ---------------------------------------------------
  free energy    TOTEN  =      -146.43834324 eV

  energy without entropy =     -146.48841454  energy(sigma->0) =     -146.45086107


--------------------------------------------------------------------------------------------------------




--------------------------------------- Iteration      1(  13)  ---------------------------------------


    POTLOK:  cpu time    0.0917: real time    0.0927
    SETDIJ:  cpu time    0.0059: real time    0.0059
    EDDIAG:  cpu time    3.1379: real time    3.1651
  RMM-DIIS:  cpu time   17.7710: real time   17.9098
    ORTHCH:  cpu time    0.6591: real time    0.6634
       DOS:  cpu time    0.0010: real time    0.0010
    CHARGE:  cpu time    0.7449: real time    0.7509
    MIXING:  cpu time    0.0032: real time    0.0044
    --------------------------------------------
      LOOP:  cpu time   22.4147: real time   22.5932

 eigenvalue-minimisations  :  5894
 total energy-change (2. order) :-0.3349904E+03  (-0.1629434E+03)
 number of electron     395.9997858 magnetization 
 augmentation part      245.1268275 magnetization 

 DIPCOR: dipole corrections for dipol
 direction  3 min pos   162,
 dipolmoment           0.000000      0.000000      8.010063 electrons x Angstroem
 Tr[quadrupol]     -4127.269317

 energy correction for charged system         0.000000 eV
 dipol+quadrupol energy correction           -4.397598 eV
 added-field ion interaction         24.266180 eV  (added to PSCEN)


 Broyden mixing:
  rms(total) = 0.96399E+01    rms(broyden)= 0.96394E+01
  rms(prec ) = 0.13393E+02
  weight for this iteration     100.00

 eigenvalues of (default mixing * dielectric matrix)
  average eigenvalue GAMMA=   0.2847
  0.2847

 Free energy of the ion-electron system (eV)
  ---------------------------------------------------
  alpha Z        PSCENC =       737.94117874
  Ewald energy   TEWEN  =    164226.44806453
  -Hartree energ DENC   =   -210914.06130425
  -exchange      EXHF   =         0.00000000
  -V(xc)+E(xc)   XCENC  =      1564.18293252
  PAW double counting   =     44213.62624821   -47787.61750089
  entropy T*S    EENTRO =        -0.07424225
  eigenvalues    EBANDS =     -2559.79800138
  atomic energy  EATOM  =     50037.92390023
  Solvation  Ediel_sol  =         0.00000000
  ---------------------------------------------------
  free energy    TOTEN  =      -481.42872455 eV

  energy without entropy =     -481.35448230  energy(sigma->0) =     -481.41016399


--------------------------------------------------------------------------------------------------------




--------------------------------------- Iteration      1(  14)  ---------------------------------------


    POTLOK:  cpu time    0.0866: real time    0.0879
    SETDIJ:  cpu time    0.0056: real time    0.0057
    EDDIAG:  cpu time    2.8974: real time    2.9220
  RMM-DIIS:  cpu time   12.1178: real time   12.2134
    ORTHCH:  cpu time    0.7051: real time    0.7099
       DOS:  cpu time    0.0012: real time    0.0012
    CHARGE:  cpu time    0.8492: real time    0.8560
    MIXING:  cpu time    0.0035: real time    0.0035
    --------------------------------------------
      LOOP:  cpu time   16.6664: real time   16.7996

 eigenvalue-minimisations  :  4138
 total energy-change (2. order) : 0.3110031E+03  (-0.3735720E+02)
 number of electron     395.9997921 magnetization 
 augmentation part      261.6280852 magnetization 

 DIPCOR: dipole corrections for dipol
 direction  3 min pos   160,
 dipolmoment           0.000000      0.000000      2.574512 electrons x Angstroem
 Tr[quadrupol]     -4128.464414

 energy correction for charged system         0.000000 eV
 dipol+quadrupol energy correction           -0.454290 eV
 added-field ion interaction          4.161058 eV  (added to PSCEN)


 Broyden mixing:
  rms(total) = 0.46166E+01    rms(broyden)= 0.46159E+01
  rms(prec ) = 0.52923E+01
  weight for this iteration     100.00

 eigenvalues of (default mixing * dielectric matrix)
  average eigenvalue GAMMA=   0.3693
  0.4769  0.2617

 Free energy of the ion-electron system (eV)
  ---------------------------------------------------
  alpha Z        PSCENC =       721.77936414
  Ewald energy   TEWEN  =    164226.44806453
  -Hartree energ DENC   =   -210950.70672444
  -exchange      EXHF   =         0.00000000
  -V(xc)+E(xc)   XCENC  =      1560.63406928
  PAW double counting   =     44245.11277555   -47855.48417524
  entropy T*S    EENTRO =        -0.04624085
  eigenvalues    EBANDS =     -2156.08668904
  atomic energy  EATOM  =     50037.92390023
  Solvation  Ediel_sol  =         0.00000000
  ---------------------------------------------------
  free energy    TOTEN  =      -170.42565585 eV

  energy without entropy =     -170.37941500  energy(sigma->0) =     -170.41409564


--------------------------------------------------------------------------------------------------------




--------------------------------------- Iteration      1(  15)  ---------------------------------------


    POTLOK:  cpu time    0.0939: real time    0.0959
    SETDIJ:  cpu time    0.0053: real time    0.0053
    EDDIAG:  cpu time    3.1903: real time    3.2179
  RMM-DIIS:  cpu time    9.8202: real time    9.8973
    ORTHCH:  cpu time    0.7058: real time    0.7112
       DOS:  cpu time    0.0010: real time    0.0010
    CHARGE:  cpu time    0.8597: real time    0.8665
    MIXING:  cpu time    0.0041: real time    0.0041
    --------------------------------------------
      LOOP:  cpu time   14.6802: real time   14.7993

 eigenvalue-minimisations  :  4054
 total energy-change (2. order) : 0.5305250E+02  (-0.1441996E+02)
 number of electron     395.9997950 magnetization 
 augmentation part      261.3835583 magnetization 

 DIPCOR: dipole corrections for dipol
 direction  3 min pos   160,
 dipolmoment           0.000000      0.000000      1.410245 electrons x Angstroem
 Tr[quadrupol]     -4125.746385

 energy correction for charged system         0.000000 eV
 dipol+quadrupol energy correction           -0.136312 eV
 added-field ion interaction          8.677709 eV  (added to PSCEN)


 Broyden mixing:
  rms(total) = 0.20433E+01    rms(broyden)= 0.20431E+01
  rms(prec ) = 0.21835E+01
  weight for this iteration     100.00

 eigenvalues of (default mixing * dielectric matrix)
  average eigenvalue GAMMA=   0.4100
  0.4698  0.4698  0.2904

 Free energy of the ion-electron system (eV)
  ---------------------------------------------------
  alpha Z        PSCENC =       726.61399402
  Ewald energy   TEWEN  =    164226.44806453
  -Hartree energ DENC   =   -211046.80188314
  -exchange      EXHF   =         0.00000000
  -V(xc)+E(xc)   XCENC  =      1570.72134365
  PAW double counting   =     44686.93232124   -48399.80509386
  entropy T*S    EENTRO =         0.00113775
  eigenvalues    EBANDS =     -1919.40693664
  atomic energy  EATOM  =     50037.92390023
  Solvation  Ediel_sol  =         0.00000000
  ---------------------------------------------------
  free energy    TOTEN  =      -117.37315222 eV

  energy without entropy =     -117.37428997  energy(sigma->0) =     -117.37343666


--------------------------------------------------------------------------------------------------------




--------------------------------------- Iteration      1(  16)  ---------------------------------------


    POTLOK:  cpu time    0.0918: real time    0.0941
    SETDIJ:  cpu time    0.0053: real time    0.0053
    EDDIAG:  cpu time    3.1977: real time    3.2259
  RMM-DIIS:  cpu time   11.2449: real time   11.3317
    ORTHCH:  cpu time    0.6847: real time    0.6896
       DOS:  cpu time    0.0011: real time    0.0011
    CHARGE:  cpu time    0.7306: real time    0.7366
    MIXING:  cpu time    0.0031: real time    0.0031
    --------------------------------------------
      LOOP:  cpu time   15.9592: real time   16.0875

 eigenvalue-minimisations  :  4121
 total energy-change (2. order) : 0.6410955E+01  (-0.2812307E+01)
 number of electron     395.9997970 magnetization 
 augmentation part      256.4821283 magnetization 

 DIPCOR: dipole corrections for dipol
 direction  3 min pos   160,
 dipolmoment           0.000000      0.000000      1.880896 electrons x Angstroem
 Tr[quadrupol]     -4127.120398

 energy correction for charged system         0.000000 eV
 dipol+quadrupol energy correction           -0.242479 eV
 added-field ion interaction          6.851866 eV  (added to PSCEN)


 Broyden mixing:
  rms(total) = 0.10062E+01    rms(broyden)= 0.10061E+01
  rms(prec ) = 0.11981E+01
  weight for this iteration     100.00

 eigenvalues of (default mixing * dielectric matrix)
  average eigenvalue GAMMA=   0.5198
  0.7228  0.7228  0.3168  0.3168

 Free energy of the ion-electron system (eV)
  ---------------------------------------------------
  alpha Z        PSCENC =       724.68198418
  Ewald energy   TEWEN  =    164226.44806453
  -Hartree energ DENC   =   -211268.00046418
  -exchange      EXHF   =         0.00000000
  -V(xc)+E(xc)   XCENC  =      1578.36941680
  PAW double counting   =     45118.48366997   -48895.56342325
  entropy T*S    EENTRO =         0.03705512
  eigenvalues    EBANDS =     -1633.34240078
  atomic energy  EATOM  =     50037.92390023
  Solvation  Ediel_sol  =         0.00000000
  ---------------------------------------------------
  free energy    TOTEN  =      -110.96219738 eV

  energy without entropy =     -110.99925250  energy(sigma->0) =     -110.97146116


--------------------------------------------------------------------------------------------------------




--------------------------------------- Iteration      1(  17)  ---------------------------------------


    POTLOK:  cpu time    0.0873: real time    0.0886
    SETDIJ:  cpu time    0.0055: real time    0.0055
    EDDIAG:  cpu time    2.8982: real time    2.9228
  RMM-DIIS:  cpu time   11.9234: real time   12.0191
    ORTHCH:  cpu time    0.7052: real time    0.7101
       DOS:  cpu time    0.0010: real time    0.0010
    CHARGE:  cpu time    0.7154: real time    0.7212
    MIXING:  cpu time    0.0036: real time    0.0036
    --------------------------------------------
      LOOP:  cpu time   16.3397: real time   16.4719

 eigenvalue-minimisations  :  4139
 total energy-change (2. order) : 0.2261900E+01  (-0.1054385E+01)
 number of electron     395.9997998 magnetization 
 augmentation part      253.5537457 magnetization 

 DIPCOR: dipole corrections for dipol
 direction  3 min pos   159,
 dipolmoment           0.000000      0.000000      1.705404 electrons x Angstroem
 Tr[quadrupol]     -4128.057152

 energy correction for charged system         0.000000 eV
 dipol+quadrupol energy correction           -0.199342 eV
 added-field ion interaction         16.698796 eV  (added to PSCEN)


 Broyden mixing:
  rms(total) = 0.30813E+00    rms(broyden)= 0.30809E+00
  rms(prec ) = 0.44090E+00
  weight for this iteration     100.00

 eigenvalues of (default mixing * dielectric matrix)
  average eigenvalue GAMMA=   0.5842
  1.0179  0.6159  0.6159  0.3356  0.3356

 Free energy of the ion-electron system (eV)
  ---------------------------------------------------
  alpha Z        PSCENC =       734.57205039
  Ewald energy   TEWEN  =    164226.44806453
  -Hartree energ DENC   =   -211416.09733071
  -exchange      EXHF   =         0.00000000
  -V(xc)+E(xc)   XCENC  =      1582.95404756
  PAW double counting   =     45597.65284351   -49413.52940056
  entropy T*S    EENTRO =         0.03708256
  eigenvalues    EBANDS =     -1458.66155489
  atomic energy  EATOM  =     50037.92390023
  Solvation  Ediel_sol  =         0.00000000
  ---------------------------------------------------
  free energy    TOTEN  =      -108.70029738 eV

  energy without entropy =     -108.73737995  energy(sigma->0) =     -108.70956802


--------------------------------------------------------------------------------------------------------




--------------------------------------- Iteration      1(  18)  ---------------------------------------


    POTLOK:  cpu time    0.0796: real time    0.0816
    SETDIJ:  cpu time    0.0057: real time    0.0058
    EDDIAG:  cpu time    2.8788: real time    2.9031
  RMM-DIIS:  cpu time   12.1711: real time   12.2665
    ORTHCH:  cpu time    0.6787: real time    0.6833
       DOS:  cpu time    0.0009: real time    0.0010
    CHARGE:  cpu time    0.7387: real time    0.7444
    MIXING:  cpu time    0.0041: real time    0.0041
    --------------------------------------------
      LOOP:  cpu time   16.5577: real time   16.6898

 eigenvalue-minimisations  :  4306
 total energy-change (2. order) :-0.1969173E-01  (-0.4079140E+00)
 number of electron     395.9998011 magnetization 
 augmentation part      252.5165040 magnetization 

 DIPCOR: dipole corrections for dipol
 direction  3 min pos   158,
 dipolmoment           0.000000      0.000000      1.469657 electrons x Angstroem
 Tr[quadrupol]     -4128.880297

 energy correction for charged system         0.000000 eV
 dipol+quadrupol energy correction           -0.148039 eV
 added-field ion interaction         29.005224 eV  (added to PSCEN)


 Broyden mixing:
  rms(total) = 0.41101E+00    rms(broyden)= 0.41100E+00
  rms(prec ) = 0.45418E+00
  weight for this iteration     100.00

 eigenvalues of (default mixing * dielectric matrix)
  average eigenvalue GAMMA=   0.7471
  1.9221  0.7593  0.7593  0.3174  0.3624  0.3624

 Free energy of the ion-electron system (eV)
  ---------------------------------------------------
  alpha Z        PSCENC =       746.92978138
  Ewald energy   TEWEN  =    164226.44806453
  -Hartree energ DENC   =   -211478.30419708
  -exchange      EXHF   =         0.00000000
  -V(xc)+E(xc)   XCENC  =      1583.95011150
  PAW double counting   =     45978.35237483   -49811.97634514
  entropy T*S    EENTRO =         0.01896231
  eigenvalues    EBANDS =     -1392.06264168
  atomic energy  EATOM  =     50037.92390023
  Solvation  Ediel_sol  =         0.00000000
  ---------------------------------------------------
  free energy    TOTEN  =      -108.71998911 eV

  energy without entropy =     -108.73895143  energy(sigma->0) =     -108.72472969


--------------------------------------------------------------------------------------------------------




--------------------------------------- Iteration      1(  19)  ---------------------------------------


    POTLOK:  cpu time    0.0926: real time    0.0945
    SETDIJ:  cpu time    0.0057: real time    0.0057
    EDDIAG:  cpu time    2.9063: real time    2.9297
  RMM-DIIS:  cpu time   11.7889: real time   11.8792
    ORTHCH:  cpu time    0.7087: real time    0.7142
       DOS:  cpu time    0.0010: real time    0.0010
    CHARGE:  cpu time    0.8379: real time    0.8447
    MIXING:  cpu time    0.0051: real time    0.0051
    --------------------------------------------
      LOOP:  cpu time   16.3462: real time   16.4742

 eigenvalue-minimisations  :  4121
 total energy-change (2. order) : 0.2497687E+00  (-0.9320869E-01)
 number of electron     395.9998005 magnetization 
 augmentation part      253.4977269 magnetization 

 DIPCOR: dipole corrections for dipol
 direction  3 min pos   157,
 dipolmoment           0.000000      0.000000      1.389709 electrons x Angstroem
 Tr[quadrupol]     -4129.981270

 energy correction for charged system         0.000000 eV
 dipol+quadrupol energy correction           -0.132370 eV
 added-field ion interaction         40.726598 eV  (added to PSCEN)


 Broyden mixing:
  rms(total) = 0.15909E+00    rms(broyden)= 0.15908E+00
  rms(prec ) = 0.25018E+00
  weight for this iteration     100.00

 eigenvalues of (default mixing * dielectric matrix)
  average eigenvalue GAMMA=   0.8185
  2.1450  0.8411  0.8411  0.8287  0.3384  0.3675  0.3675

 Free energy of the ion-electron system (eV)
  ---------------------------------------------------
  alpha Z        PSCENC =       758.66682388
  Ewald energy   TEWEN  =    164226.44806453
  -Hartree energ DENC   =   -211479.56166376
  -exchange      EXHF   =         0.00000000
  -V(xc)+E(xc)   XCENC  =      1581.65282842
  PAW double counting   =     46231.63108259   -50067.89872572
  entropy T*S    EENTRO =         0.00619535
  eigenvalues    EBANDS =     -1397.33872593
  atomic energy  EATOM  =     50037.92390023
  Solvation  Ediel_sol  =         0.00000000
  ---------------------------------------------------
  free energy    TOTEN  =      -108.47022041 eV

  energy without entropy =     -108.47641577  energy(sigma->0) =     -108.47176925


--------------------------------------------------------------------------------------------------------




--------------------------------------- Iteration      1(  20)  ---------------------------------------


    POTLOK:  cpu time    0.0910: real time    0.0930
    SETDIJ:  cpu time    0.0055: real time    0.0056
    EDDIAG:  cpu time    3.1540: real time    3.1817
  RMM-DIIS:  cpu time   12.0210: real time   12.1117
    ORTHCH:  cpu time    0.6453: real time    0.6496
       DOS:  cpu time    0.0011: real time    0.0011
    CHARGE:  cpu time    0.6996: real time    0.7051
    MIXING:  cpu time    0.0035: real time    0.0036
    --------------------------------------------
      LOOP:  cpu time   16.6210: real time   16.7512

 eigenvalue-minimisations  :  4190
 total energy-change (2. order) : 0.1315760E+00  (-0.1151193E-01)
 number of electron     395.9998003 magnetization 
 augmentation part      253.5496323 magnetization 

 DIPCOR: dipole corrections for dipol
 direction  3 min pos   156,
 dipolmoment           0.000000      0.000000      1.499422 electrons x Angstroem
 Tr[quadrupol]     -4130.522758

 energy correction for charged system         0.000000 eV
 dipol+quadrupol energy correction           -0.154096 eV
 added-field ion interaction         48.885708 eV  (added to PSCEN)


 Broyden mixing:
  rms(total) = 0.57757E-01    rms(broyden)= 0.57751E-01
  rms(prec ) = 0.74176E-01
  weight for this iteration     100.00

 eigenvalues of (default mixing * dielectric matrix)
  average eigenvalue GAMMA=   0.8343
  2.0856  1.3512  0.8041  0.8041  0.5380  0.3451  0.3451  0.4015

 Free energy of the ion-electron system (eV)
  ---------------------------------------------------
  alpha Z        PSCENC =       766.80420777
  Ewald energy   TEWEN  =    164226.44806453
  -Hartree energ DENC   =   -211505.68903542
  -exchange      EXHF   =         0.00000000
  -V(xc)+E(xc)   XCENC  =      1581.34375519
  PAW double counting   =     46372.02060424   -50213.73460527
  entropy T*S    EENTRO =         0.00311933
  eigenvalues    EBANDS =     -1373.45865500
  atomic energy  EATOM  =     50037.92390023
  Solvation  Ediel_sol  =         0.00000000
  ---------------------------------------------------
  free energy    TOTEN  =      -108.33864441 eV

  energy without entropy =     -108.34176374  energy(sigma->0) =     -108.33942424


--------------------------------------------------------------------------------------------------------




--------------------------------------- Iteration      1(  21)  ---------------------------------------


    POTLOK:  cpu time    0.0765: real time    0.0776
    SETDIJ:  cpu time    0.0051: real time    0.0052
    EDDIAG:  cpu time    2.9683: real time    2.9958
  RMM-DIIS:  cpu time   10.7901: real time   10.8734
    ORTHCH:  cpu time    0.7076: real time    0.7126
       DOS:  cpu time    0.0011: real time    0.0011
    CHARGE:  cpu time    0.8467: real time    0.8533
    MIXING:  cpu time    0.0049: real time    0.0049
    --------------------------------------------
      LOOP:  cpu time   15.4003: real time   15.5240

 eigenvalue-minimisations  :  4195
 total energy-change (2. order) : 0.9105356E-02  (-0.6640182E-02)
 number of electron     395.9998000 magnetization 
 augmentation part      253.6940109 magnetization 

 DIPCOR: dipole corrections for dipol
 direction  3 min pos   155,
 dipolmoment           0.000000      0.000000      1.517250 electrons x Angstroem
 Tr[quadrupol]     -4130.817372

 energy correction for charged system         0.000000 eV
 dipol+quadrupol energy correction           -0.157782 eV
 added-field ion interaction         58.534259 eV  (added to PSCEN)


 Broyden mixing:
  rms(total) = 0.61418E-01    rms(broyden)= 0.61416E-01
  rms(prec ) = 0.74662E-01
  weight for this iteration     100.00

 eigenvalues of (default mixing * dielectric matrix)
  average eigenvalue GAMMA=   0.9493
  2.2418  2.2418  0.8204  0.8204  0.7862  0.5508  0.3482  0.3482  0.3864

 Free energy of the ion-electron system (eV)
  ---------------------------------------------------
  alpha Z        PSCENC =       776.44907301
  Ewald energy   TEWEN  =    164226.44806453
  -Hartree energ DENC   =   -211521.30289150
  -exchange      EXHF   =         0.00000000
  -V(xc)+E(xc)   XCENC  =      1581.12374411
  PAW double counting   =     46389.36725864   -50230.57347784
  entropy T*S    EENTRO =         0.00183208
  eigenvalues    EBANDS =     -1367.76704230
  atomic energy  EATOM  =     50037.92390023
  Solvation  Ediel_sol  =         0.00000000
  ---------------------------------------------------
  free energy    TOTEN  =      -108.32953906 eV

  energy without entropy =     -108.33137113  energy(sigma->0) =     -108.32999708


--------------------------------------------------------------------------------------------------------




--------------------------------------- Iteration      1(  22)  ---------------------------------------


    POTLOK:  cpu time    0.0914: real time    0.0927
    SETDIJ:  cpu time    0.0052: real time    0.0053
    EDDIAG:  cpu time    3.2162: real time    3.2447
  RMM-DIIS:  cpu time   11.7117: real time   11.8011
    ORTHCH:  cpu time    0.7013: real time    0.7061
       DOS:  cpu time    0.0010: real time    0.0010
    CHARGE:  cpu time    0.7175: real time    0.7244
    MIXING:  cpu time    0.0053: real time    0.0053
    --------------------------------------------
      LOOP:  cpu time   16.4497: real time   16.5807

 eigenvalue-minimisations  :  4015
 total energy-change (2. order) : 0.2203498E-01  (-0.2366362E-02)
 number of electron     395.9998001 magnetization 
 augmentation part      253.6047316 magnetization 

 DIPCOR: dipole corrections for dipol
 direction  3 min pos   154,
 dipolmoment           0.000000      0.000000      1.485117 electrons x Angstroem
 Tr[quadrupol]     -4131.301924

 energy correction for charged system         0.000000 eV
 dipol+quadrupol energy correction           -0.151170 eV
 added-field ion interaction         69.623359 eV  (added to PSCEN)


 Broyden mixing:
  rms(total) = 0.22398E-01    rms(broyden)= 0.22397E-01
  rms(prec ) = 0.29967E-01
  weight for this iteration     100.00

 eigenvalues of (default mixing * dielectric matrix)
  average eigenvalue GAMMA=   0.9443
  2.3556  2.3556  0.8230  0.8230  0.7595  0.7595  0.3472  0.3472  0.3928  0.4793

 Free energy of the ion-electron system (eV)
  ---------------------------------------------------
  alpha Z        PSCENC =       787.54478571
  Ewald energy   TEWEN  =    164226.44806453
  -Hartree energ DENC   =   -211552.05749165
  -exchange      EXHF   =         0.00000000
  -V(xc)+E(xc)   XCENC  =      1581.36321655
  PAW double counting   =     46426.29138975   -50268.27025234
  entropy T*S    EENTRO =        -0.00269289
  eigenvalues    EBANDS =     -1347.54842396
  atomic energy  EATOM  =     50037.92390023
  Solvation  Ediel_sol  =         0.00000000
  ---------------------------------------------------
  free energy    TOTEN  =      -108.30750407 eV

  energy without entropy =     -108.30481118  energy(sigma->0) =     -108.30683085


--------------------------------------------------------------------------------------------------------




--------------------------------------- Iteration      1(  23)  ---------------------------------------


    POTLOK:  cpu time    0.0799: real time    0.0819
    SETDIJ:  cpu time    0.0056: real time    0.0057
    EDDIAG:  cpu time    2.8679: real time    2.8921
  RMM-DIIS:  cpu time   11.8736: real time   11.9657
    ORTHCH:  cpu time    0.7076: real time    0.7128
       DOS:  cpu time    0.0010: real time    0.0010
    CHARGE:  cpu time    0.8581: real time    0.8648
    MIXING:  cpu time    0.0046: real time    0.0047
    --------------------------------------------
      LOOP:  cpu time   16.3983: real time   16.5287

 eigenvalue-minimisations  :  4176
 total energy-change (2. order) : 0.2687303E-02  (-0.5030593E-03)
 number of electron     395.9998001 magnetization 
 augmentation part      253.6410543 magnetization 

 DIPCOR: dipole corrections for dipol
 direction  3 min pos   154,
 dipolmoment           0.000000      0.000000      1.479710 electrons x Angstroem
 Tr[quadrupol]     -4131.500741

 energy correction for charged system         0.000000 eV
 dipol+quadrupol energy correction           -0.150071 eV
 added-field ion interaction         69.797475 eV  (added to PSCEN)


 Broyden mixing:
  rms(total) = 0.19594E-01    rms(broyden)= 0.19594E-01
  rms(prec ) = 0.26843E-01
  weight for this iteration     100.00

 eigenvalues of (default mixing * dielectric matrix)
  average eigenvalue GAMMA=   0.9820
  2.3882  2.3882  1.3704  0.9337  0.8278  0.8278  0.5478  0.3490  0.3490  0.3810
  0.4395

 Free energy of the ion-electron system (eV)
  ---------------------------------------------------
  alpha Z        PSCENC =       787.72000046
  Ewald energy   TEWEN  =    164226.44806453
  -Hartree energ DENC   =   -211558.32156079
  -exchange      EXHF   =         0.00000000
  -V(xc)+E(xc)   XCENC  =      1581.33018528
  PAW double counting   =     46423.88601727   -50265.41683806
  entropy T*S    EENTRO =        -0.00354542
  eigenvalues    EBANDS =     -1341.87104026
  atomic energy  EATOM  =     50037.92390023
  Solvation  Ediel_sol  =         0.00000000
  ---------------------------------------------------
  free energy    TOTEN  =      -108.30481677 eV

  energy without entropy =     -108.30127135  energy(sigma->0) =     -108.30393042


--------------------------------------------------------------------------------------------------------




--------------------------------------- Iteration      1(  24)  ---------------------------------------


    POTLOK:  cpu time    0.0934: real time    0.0956
    SETDIJ:  cpu time    0.0055: real time    0.0055
    EDDIAG:  cpu time    3.2078: real time    3.2362
  RMM-DIIS:  cpu time   10.3428: real time   10.4283
    ORTHCH:  cpu time    0.6878: real time    0.6926
       DOS:  cpu time    0.0010: real time    0.0010
    CHARGE:  cpu time    0.7431: real time    0.7492
    MIXING:  cpu time    0.0048: real time    0.0048
    --------------------------------------------
      LOOP:  cpu time   15.0863: real time   15.2132

 eigenvalue-minimisations  :  4050
 total energy-change (2. order) : 0.3995844E-02  (-0.3498351E-03)
 number of electron     395.9998001 magnetization 
 augmentation part      253.6256890 magnetization 

 DIPCOR: dipole corrections for dipol
 direction  3 min pos   154,
 dipolmoment           0.000000      0.000000      1.459289 electrons x Angstroem
 Tr[quadrupol]     -4131.870201

 energy correction for charged system         0.000000 eV
 dipol+quadrupol energy correction           -0.145958 eV
 added-field ion interaction         70.455093 eV  (added to PSCEN)


 Broyden mixing:
  rms(total) = 0.10951E-01    rms(broyden)= 0.10950E-01
  rms(prec ) = 0.14146E-01
  weight for this iteration     100.00

 eigenvalues of (default mixing * dielectric matrix)
  average eigenvalue GAMMA=   1.0514
  2.7923  2.7923  1.4541  0.8299  0.8299  0.9191  0.9191  0.5711  0.3487  0.3487
  0.3834  0.4282

 Free energy of the ion-electron system (eV)
  ---------------------------------------------------
  alpha Z        PSCENC =       788.38173171
  Ewald energy   TEWEN  =    164226.44806453
  -Hartree energ DENC   =   -211572.09525634
  -exchange      EXHF   =         0.00000000
  -V(xc)+E(xc)   XCENC  =      1581.39273931
  PAW double counting   =     46419.57270559   -50260.90691917
  entropy T*S    EENTRO =        -0.00611621
  eigenvalues    EBANDS =     -1329.01167057
  atomic energy  EATOM  =     50037.92390023
  Solvation  Ediel_sol  =         0.00000000
  ---------------------------------------------------
  free energy    TOTEN  =      -108.30082093 eV

  energy without entropy =     -108.29470472  energy(sigma->0) =     -108.29929187


--------------------------------------------------------------------------------------------------------




--------------------------------------- Iteration      1(  25)  ---------------------------------------


    POTLOK:  cpu time    0.0938: real time    0.0947
    SETDIJ:  cpu time    0.0053: real time    0.0053
    EDDIAG:  cpu time    3.0632: real time    3.0895
  RMM-DIIS:  cpu time   12.1173: real time   12.2128
    ORTHCH:  cpu time    0.7075: real time    0.7127
       DOS:  cpu time    0.0010: real time    0.0010
    CHARGE:  cpu time    0.8720: real time    0.8792
    MIXING:  cpu time    0.0057: real time    0.0057
    --------------------------------------------
      LOOP:  cpu time   16.8657: real time   17.0010

 eigenvalue-minimisations  :  4031
 total energy-change (2. order) : 0.2975009E-03  (-0.4113325E-03)
 number of electron     395.9998002 magnetization 
 augmentation part      253.5676043 magnetization 

 DIPCOR: dipole corrections for dipol
 direction  3 min pos   154,
 dipolmoment           0.000000      0.000000      1.434937 electrons x Angstroem
 Tr[quadrupol]     -4132.305152

 energy correction for charged system         0.000000 eV
 dipol+quadrupol energy correction           -0.141127 eV
 added-field ion interaction         71.239333 eV  (added to PSCEN)


 Broyden mixing:
  rms(total) = 0.11333E-01    rms(broyden)= 0.11332E-01
  rms(prec ) = 0.15175E-01
  weight for this iteration     100.00

 eigenvalues of (default mixing * dielectric matrix)
  average eigenvalue GAMMA=   1.1034
  3.4998  2.9718  1.3791  1.3791  0.8253  0.8253  0.9050  0.5788  0.3486  0.3486
  0.4792  0.3839  0.4202

 Free energy of the ion-electron system (eV)
  ---------------------------------------------------
  alpha Z        PSCENC =       789.17080268
  Ewald energy   TEWEN  =    164226.44806453
  -Hartree energ DENC   =   -211588.97617829
  -exchange      EXHF   =         0.00000000
  -V(xc)+E(xc)   XCENC  =      1581.53134104
  PAW double counting   =     46410.13010711   -50251.40697435
  entropy T*S    EENTRO =        -0.00880225
  eigenvalues    EBANDS =     -1313.11278411
  atomic energy  EATOM  =     50037.92390023
  Solvation  Ediel_sol  =         0.00000000
  ---------------------------------------------------
  free energy    TOTEN  =      -108.30052343 eV

  energy without entropy =     -108.29172118  energy(sigma->0) =     -108.29832286


--------------------------------------------------------------------------------------------------------




--------------------------------------- Iteration      1(  26)  ---------------------------------------


    POTLOK:  cpu time    0.0966: real time    0.0978
    SETDIJ:  cpu time    0.0052: real time    0.0052
    EDDIAG:  cpu time    3.0764: real time    3.1023
  RMM-DIIS:  cpu time    9.6217: real time    9.7005
    ORTHCH:  cpu time    0.7119: real time    0.7171
       DOS:  cpu time    0.0010: real time    0.0010
    CHARGE:  cpu time    0.8446: real time    0.8512
    MIXING:  cpu time    0.0066: real time    0.0067
    --------------------------------------------
      LOOP:  cpu time   14.3640: real time   14.4819

 eigenvalue-minimisations  :  3964
 total energy-change (2. order) :-0.3123548E-03  (-0.5901732E-04)
 number of electron     395.9998001 magnetization 
 augmentation part      253.5822346 magnetization 

 DIPCOR: dipole corrections for dipol
 direction  3 min pos   155,
 dipolmoment           0.000000      0.000000      1.431085 electrons x Angstroem
 Tr[quadrupol]     -4132.672561

 energy correction for charged system         0.000000 eV
 dipol+quadrupol energy correction           -0.140370 eV
 added-field ion interaction         60.902272 eV  (added to PSCEN)


 Broyden mixing:
  rms(total) = 0.47094E-02    rms(broyden)= 0.47093E-02
  rms(prec ) = 0.70857E-02
  weight for this iteration     100.00

 eigenvalues of (default mixing * dielectric matrix)
  average eigenvalue GAMMA=   1.2104
  4.2806  2.8064  2.0215  1.7460  0.8254  0.8254  0.9595  0.9595  0.5760  0.3486
  0.3486  0.3847  0.4494  0.4142

 Free energy of the ion-electron system (eV)
  ---------------------------------------------------
  alpha Z        PSCENC =       778.83449796
  Ewald energy   TEWEN  =    164226.44806453
  -Hartree energ DENC   =   -211592.16806057
  -exchange      EXHF   =         0.00000000
  -V(xc)+E(xc)   XCENC  =      1581.51304104
  PAW double counting   =     46403.68963892   -50244.73075460
  entropy T*S    EENTRO =        -0.00885452
  eigenvalues    EBANDS =     -1299.80230877
  atomic energy  EATOM  =     50037.92390023
  Solvation  Ediel_sol  =         0.00000000
  ---------------------------------------------------
  free energy    TOTEN  =      -108.30083578 eV

  energy without entropy =     -108.29198126  energy(sigma->0) =     -108.29862215


--------------------------------------------------------------------------------------------------------




--------------------------------------- Iteration      1(  27)  ---------------------------------------


    POTLOK:  cpu time    0.0970: real time    0.0989
    SETDIJ:  cpu time    0.0055: real time    0.0055
    EDDIAG:  cpu time    3.2209: real time    3.2499
  RMM-DIIS:  cpu time   11.8053: real time   11.8962
    ORTHCH:  cpu time    0.6448: real time    0.6490
       DOS:  cpu time    0.0009: real time    0.0009
    CHARGE:  cpu time    0.7682: real time    0.7741
    MIXING:  cpu time    0.0063: real time    0.0064
    --------------------------------------------
      LOOP:  cpu time   16.5489: real time   16.6810

 eigenvalue-minimisations  :  3988
 total energy-change (2. order) :-0.1465251E-02  (-0.9719808E-04)
 number of electron     395.9998001 magnetization 
 augmentation part      253.6173161 magnetization 

 DIPCOR: dipole corrections for dipol
 direction  3 min pos   157,
 dipolmoment           0.000000      0.000000      1.432569 electrons x Angstroem
 Tr[quadrupol]     -4133.307637

 energy correction for charged system         0.000000 eV
 dipol+quadrupol energy correction           -0.140661 eV
 added-field ion interaction         39.953341 eV  (added to PSCEN)


 Broyden mixing:
  rms(total) = 0.73906E-02    rms(broyden)= 0.73904E-02
  rms(prec ) = 0.98609E-02
  weight for this iteration     100.00

 eigenvalues of (default mixing * dielectric matrix)
  average eigenvalue GAMMA=   1.2739
  4.6592  3.2002  2.5724  1.3512  1.3512  0.8242  0.8242  0.8984  0.8984  0.5851
  0.3486  0.3486  0.3841  0.4457  0.4168

 Free energy of the ion-electron system (eV)
  ---------------------------------------------------
  alpha Z        PSCENC =       757.88527652
  Ewald energy   TEWEN  =    164226.44806453
  -Hartree energ DENC   =   -211593.75720928
  -exchange      EXHF   =         0.00000000
  -V(xc)+E(xc)   XCENC  =      1581.44175949
  PAW double counting   =     46403.23760784   -50244.28910377
  entropy T*S    EENTRO =        -0.00824022
  eigenvalues    EBANDS =     -1277.18435636
  atomic energy  EATOM  =     50037.92390023
  Solvation  Ediel_sol  =         0.00000000
  ---------------------------------------------------
  free energy    TOTEN  =      -108.30230103 eV

  energy without entropy =     -108.29406081  energy(sigma->0) =     -108.30024098


--------------------------------------------------------------------------------------------------------




--------------------------------------- Iteration      1(  28)  ---------------------------------------


    POTLOK:  cpu time    0.0965: real time    0.4271
    SETDIJ:  cpu time    0.0057: real time    0.0057
    EDDIAG:  cpu time    2.8664: real time    2.8903
  RMM-DIIS:  cpu time   10.7187: real time   10.8039
    ORTHCH:  cpu time    0.7066: real time    0.7115
       DOS:  cpu time    0.0010: real time    0.0010
    CHARGE:  cpu time    0.8678: real time    0.8747
    MIXING:  cpu time    0.0059: real time    0.0060
    --------------------------------------------
      LOOP:  cpu time   15.2687: real time   15.7203

 eigenvalue-minimisations  :  3958
 total energy-change (2. order) :-0.4478692E-03  (-0.3838403E-04)
 number of electron     395.9998001 magnetization 
 augmentation part      253.5987645 magnetization 

 DIPCOR: dipole corrections for dipol
 direction  3 min pos   159,
 dipolmoment           0.000000      0.000000      1.428025 electrons x Angstroem
 Tr[quadrupol]     -4133.959158

 energy correction for charged system         0.000000 eV
 dipol+quadrupol energy correction           -0.139770 eV
 added-field ion interaction         19.084261 eV  (added to PSCEN)


 Broyden mixing:
  rms(total) = 0.16371E-02    rms(broyden)= 0.16370E-02
  rms(prec ) = 0.31334E-02
  weight for this iteration     100.00

 eigenvalues of (default mixing * dielectric matrix)
  average eigenvalue GAMMA=   1.2709
  4.9090  3.4175  2.5104  1.4473  1.4473  0.8242  0.8242  0.8846  0.8846  0.6712
  0.5717  0.3486  0.3486  0.3843  0.4443  0.4160

 Free energy of the ion-electron system (eV)
  ---------------------------------------------------
  alpha Z        PSCENC =       737.01708663
  Ewald energy   TEWEN  =    164226.44806453
  -Hartree energ DENC   =   -211598.15527025
  -exchange      EXHF   =         0.00000000
  -V(xc)+E(xc)   XCENC  =      1581.47167364
  PAW double counting   =     46406.99449354   -50248.28878564
  entropy T*S    EENTRO =        -0.00865540
  eigenvalues    EBANDS =     -1251.70525618
  atomic energy  EATOM  =     50037.92390023
  Solvation  Ediel_sol  =         0.00000000
  ---------------------------------------------------
  free energy    TOTEN  =      -108.30274890 eV

  energy without entropy =     -108.29409350  energy(sigma->0) =     -108.30058505


--------------------------------------------------------------------------------------------------------




--------------------------------------- Iteration      1(  29)  ---------------------------------------


    POTLOK:  cpu time    0.1003: real time    0.1027
    SETDIJ:  cpu time    0.0053: real time    0.0054
    EDDIAG:  cpu time    3.1927: real time    3.2207
  RMM-DIIS:  cpu time    9.9018: real time    9.9755
    ORTHCH:  cpu time    0.6689: real time    0.6735
       DOS:  cpu time    0.0011: real time    0.0012
    CHARGE:  cpu time    0.7572: real time    0.7635
    MIXING:  cpu time    0.0059: real time    0.0060
    --------------------------------------------
      LOOP:  cpu time   14.6333: real time   14.7485

 eigenvalue-minimisations  :  3584
 total energy-change (2. order) :-0.3854550E-03  (-0.1349332E-04)
 number of electron     395.9998001 magnetization 
 augmentation part      253.5980827 magnetization 

 DIPCOR: dipole corrections for dipol
 direction  3 min pos   171,
 dipolmoment           0.000000      0.000000      1.441817 electrons x Angstroem
 Tr[quadrupol]     -4137.006731

 energy correction for charged system         0.000000 eV
 dipol+quadrupol energy correction           -0.142483 eV
 added-field ion interaction       -105.959417 eV  (added to PSCEN)


 Broyden mixing:
  rms(total) = 0.34557E-02    rms(broyden)= 0.34557E-02
  rms(prec ) = 0.83353E-02
  weight for this iteration     100.00

 eigenvalues of (default mixing * dielectric matrix)
  average eigenvalue GAMMA=   1.2859
  5.2708  3.5467  2.4649  1.5944  1.5944  0.8239  0.8239  0.9873  0.9873  0.8732
  0.5735  0.3486  0.3486  0.4343  0.3811  0.4036  0.4036

 Free energy of the ion-electron system (eV)
  ---------------------------------------------------
  alpha Z        PSCENC =       611.97069625
  Ewald energy   TEWEN  =    164226.44806453
  -Hartree energ DENC   =   -211599.02687193
  -exchange      EXHF   =         0.00000000
  -V(xc)+E(xc)   XCENC  =      1581.47537331
  PAW double counting   =     46406.70462282   -50247.96640972
  entropy T*S    EENTRO =        -0.00842597
  eigenvalues    EBANDS =     -1125.82408387
  atomic energy  EATOM  =     50037.92390023
  Solvation  Ediel_sol  =         0.00000000
  ---------------------------------------------------
  free energy    TOTEN  =      -108.30313436 eV

  energy without entropy =     -108.29470839  energy(sigma->0) =     -108.30102786


--------------------------------------------------------------------------------------------------------




--------------------------------------- Iteration      1(  30)  ---------------------------------------


    POTLOK:  cpu time    0.0937: real time    0.0949
    SETDIJ:  cpu time    0.0052: real time    0.0053
    EDDIAG:  cpu time    2.8975: real time    2.9217
  RMM-DIIS:  cpu time    8.1540: real time    8.2163
    ORTHCH:  cpu time    0.7088: real time    0.7140
       DOS:  cpu time    0.0014: real time    0.0015
    CHARGE:  cpu time    0.8500: real time    0.8566
    MIXING:  cpu time    0.0084: real time    0.0085
    --------------------------------------------
      LOOP:  cpu time   12.7191: real time   12.8189

 eigenvalue-minimisations  :  2661
 total energy-change (2. order) :-0.1205998E-03  (-0.3431298E-05)
 number of electron     395.9998001 magnetization 
 augmentation part      253.5990506 magnetization 

 DIPCOR: dipole corrections for dipol
 direction  3 min pos   177,
 dipolmoment           0.000000      0.000000      1.447671 electrons x Angstroem
 Tr[quadrupol]     -4138.560154

 energy correction for charged system         0.000000 eV
 dipol+quadrupol energy correction           -0.143643 eV
 added-field ion interaction       -167.974864 eV  (added to PSCEN)


 Broyden mixing:
  rms(total) = 0.27344E-02    rms(broyden)= 0.27344E-02
  rms(prec ) = 0.59228E-02
  weight for this iteration     100.00

 eigenvalues of (default mixing * dielectric matrix)
  average eigenvalue GAMMA=   1.2951
  5.5072  3.6755  2.3655  2.0207  1.4722  1.1046  1.1046  0.8243  0.8243  0.8829
  0.5805  0.5805  0.3486  0.3486  0.3838  0.4414  0.4228  0.4228

 Free energy of the ion-electron system (eV)
  ---------------------------------------------------
  alpha Z        PSCENC =       549.95408989
  Ewald energy   TEWEN  =    164226.44806453
  -Hartree energ DENC   =   -211599.84835610
  -exchange      EXHF   =         0.00000000
  -V(xc)+E(xc)   XCENC  =      1581.47750996
  PAW double counting   =     46406.50791922   -50247.69797928
  entropy T*S    EENTRO =        -0.00836848
  eigenvalues    EBANDS =     -1063.06003492
  atomic energy  EATOM  =     50037.92390023
  Solvation  Ediel_sol  =         0.00000000
  ---------------------------------------------------
  free energy    TOTEN  =      -108.30325496 eV

  energy without entropy =     -108.29488648  energy(sigma->0) =     -108.30116284


--------------------------------------------------------------------------------------------------------




--------------------------------------- Iteration      1(  31)  ---------------------------------------


    POTLOK:  cpu time    0.0996: real time    0.1020
    SETDIJ:  cpu time    0.0055: real time    0.0055
    EDDIAG:  cpu time    3.2143: real time    3.2427
  RMM-DIIS:  cpu time    9.3200: real time    9.3897
    ORTHCH:  cpu time    0.6674: real time    0.6717
       DOS:  cpu time    0.0010: real time    0.0010
    CHARGE:  cpu time    0.7577: real time    0.7640
    MIXING:  cpu time    0.0066: real time    0.0067
    --------------------------------------------
      LOOP:  cpu time   14.0721: real time   14.1833

 eigenvalue-minimisations  :  3365
 total energy-change (2. order) :-0.4670781E-04  (-0.5819741E-05)
 number of electron     395.9998001 magnetization 
 augmentation part      253.5976685 magnetization 

 DIPCOR: dipole corrections for dipol
 direction  3 min pos   179,
 dipolmoment           0.000000      0.000000      1.444335 electrons x Angstroem
 Tr[quadrupol]     -4139.082354

 energy correction for charged system         0.000000 eV
 dipol+quadrupol energy correction           -0.142981 eV
 added-field ion interaction       -189.026721 eV  (added to PSCEN)


 Broyden mixing:
  rms(total) = 0.11774E-02    rms(broyden)= 0.11772E-02
  rms(prec ) = 0.17118E-02
  weight for this iteration     100.00

 eigenvalues of (default mixing * dielectric matrix)
  average eigenvalue GAMMA=   1.3318
  5.7634  3.9426  2.4897  2.4897  1.3743  1.3743  0.8240  0.8240  0.9504  0.9151
  0.9151  0.5344  0.5344  0.3486  0.3486  0.4677  0.3841  0.4187  0.4049

 Free energy of the ion-electron system (eV)
  ---------------------------------------------------
  alpha Z        PSCENC =       528.90289430
  Ewald energy   TEWEN  =    164226.44806453
  -Hartree energ DENC   =   -211600.47386172
  -exchange      EXHF   =         0.00000000
  -V(xc)+E(xc)   XCENC  =      1581.48020088
  PAW double counting   =     46406.83934922   -50248.00854679
  entropy T*S    EENTRO =        -0.00856143
  eigenvalues    EBANDS =     -1041.40674088
  atomic energy  EATOM  =     50037.92390023
  Solvation  Ediel_sol  =         0.00000000
  ---------------------------------------------------
  free energy    TOTEN  =      -108.30330166 eV

  energy without entropy =     -108.29474023  energy(sigma->0) =     -108.30116131


--------------------------------------------------------------------------------------------------------




--------------------------------------- Iteration      1(  32)  ---------------------------------------


    POTLOK:  cpu time    0.0927: real time    0.0936
    SETDIJ:  cpu time    0.0053: real time    0.0053
    EDDIAG:  cpu time    2.8974: real time    2.9216
  RMM-DIIS:  cpu time    9.5429: real time    9.6141
    ORTHCH:  cpu time    0.7099: real time    0.7150
       DOS:  cpu time    0.0010: real time    0.0010
    CHARGE:  cpu time    0.8861: real time    0.8932
    MIXING:  cpu time    0.0076: real time    0.0077
    --------------------------------------------
      LOOP:  cpu time   14.1430: real time   14.2516

 eigenvalue-minimisations  :  3154
 total energy-change (2. order) :-0.2093663E-03  (-0.5042331E-05)
 number of electron     395.9998001 magnetization 
 augmentation part      253.5939464 magnetization 

 DIPCOR: dipole corrections for dipol
 direction  3 min pos   180,
 dipolmoment           0.000000      0.000000      1.439907 electrons x Angstroem
 Tr[quadrupol]     -4139.366725

 energy correction for charged system         0.000000 eV
 dipol+quadrupol energy correction           -0.142106 eV
 added-field ion interaction       -199.826101 eV  (added to PSCEN)


 Broyden mixing:
  rms(total) = 0.22290E-02    rms(broyden)= 0.22289E-02
  rms(prec ) = 0.53480E-02
  weight for this iteration     100.00

 eigenvalues of (default mixing * dielectric matrix)
  average eigenvalue GAMMA=   1.3026
  5.9131  3.9051  2.4702  2.4702  1.3528  1.3528  0.8246  0.8246  0.9216  0.9216
  0.9504  0.7902  0.5919  0.3486  0.3486  0.4493  0.4493  0.4163  0.3845  0.3658

 Free energy of the ion-electron system (eV)
  ---------------------------------------------------
  alpha Z        PSCENC =       518.10438911
  Ewald energy   TEWEN  =    164226.44806453
  -Hartree energ DENC   =   -211601.26951246
  -exchange      EXHF   =         0.00000000
  -V(xc)+E(xc)   XCENC  =      1581.48438225
  PAW double counting   =     46407.03893333   -50248.23123038
  entropy T*S    EENTRO =        -0.00879173
  eigenvalues    EBANDS =     -1029.79364589
  atomic energy  EATOM  =     50037.92390023
  Solvation  Ediel_sol  =         0.00000000
  ---------------------------------------------------
  free energy    TOTEN  =      -108.30351103 eV

  energy without entropy =     -108.29471930  energy(sigma->0) =     -108.30131310


--------------------------------------------------------------------------------------------------------




--------------------------------------- Iteration      1(  33)  ---------------------------------------


    POTLOK:  cpu time    0.0967: real time    0.0975
    SETDIJ:  cpu time    0.0056: real time    0.0057
    EDDIAG:  cpu time    3.2036: real time    3.2317
  RMM-DIIS:  cpu time    7.1736: real time    7.2262
    ORTHCH:  cpu time    0.6632: real time    0.6677
       DOS:  cpu time    0.0010: real time    0.0010
    CHARGE:  cpu time    0.7083: real time    0.7139
    MIXING:  cpu time    0.0073: real time    0.0073
    --------------------------------------------
      LOOP:  cpu time   11.8594: real time   11.9510

 eigenvalue-minimisations  :  2425
 total energy-change (2. order) : 0.3611845E-04  (-0.9107527E-06)
 number of electron     395.9998001 magnetization 
 augmentation part      253.5950807 magnetization 

 DIPCOR: dipole corrections for dipol
 direction  3 min pos   179,
 dipolmoment           0.000000      0.000000      1.440497 electrons x Angstroem
 Tr[quadrupol]     -4139.139124

 energy correction for charged system         0.000000 eV
 dipol+quadrupol energy correction           -0.142222 eV
 added-field ion interaction       -189.356108 eV  (added to PSCEN)


 Broyden mixing:
  rms(total) = 0.12030E-02    rms(broyden)= 0.12030E-02
  rms(prec ) = 0.27552E-02
  weight for this iteration     100.00

 eigenvalues of (default mixing * dielectric matrix)
  average eigenvalue GAMMA=   1.3399
  6.1336  3.8214  2.5376  2.5376  1.5424  1.5424  1.3492  0.8244  0.8244  1.1023
  0.9459  0.9459  0.6934  0.5876  0.3486  0.3486  0.4392  0.4392  0.4193  0.3840
  0.3700

 Free energy of the ion-electron system (eV)
  ---------------------------------------------------
  alpha Z        PSCENC =       528.57426623
  Ewald energy   TEWEN  =    164226.44806453
  -Hartree energ DENC   =   -211601.41148008
  -exchange      EXHF   =         0.00000000
  -V(xc)+E(xc)   XCENC  =      1581.48251717
  PAW double counting   =     46406.66272328   -50247.86163287
  entropy T*S    EENTRO =        -0.00872350
  eigenvalues    EBANDS =     -1040.11310991
  atomic energy  EATOM  =     50037.92390023
  Solvation  Ediel_sol  =         0.00000000
  ---------------------------------------------------
  free energy    TOTEN  =      -108.30347491 eV

  energy without entropy =     -108.29475141  energy(sigma->0) =     -108.30129404


--------------------------------------------------------------------------------------------------------




--------------------------------------- Iteration      1(  34)  ---------------------------------------


    POTLOK:  cpu time    0.0944: real time    0.0951
    SETDIJ:  cpu time    0.0054: real time    0.0055
    EDDIAG:  cpu time    2.9066: real time    2.9314
  RMM-DIIS:  cpu time    7.1446: real time    7.1974
    ORTHCH:  cpu time    0.7084: real time    0.7134
       DOS:  cpu time    0.0010: real time    0.0010
    CHARGE:  cpu time    0.8565: real time    0.8634
    MIXING:  cpu time    0.0083: real time    0.0084
    --------------------------------------------
      LOOP:  cpu time   11.7253: real time   11.8156

 eigenvalue-minimisations  :  2391
 total energy-change (2. order) :-0.6879118E-04  (-0.9250059E-06)
 number of electron     395.9998001 magnetization 
 augmentation part      253.5961984 magnetization 

 DIPCOR: dipole corrections for dipol
 direction  3 min pos   178,
 dipolmoment           0.000000      0.000000      1.439409 electrons x Angstroem
 Tr[quadrupol]     -4138.927517

 energy correction for charged system         0.000000 eV
 dipol+quadrupol energy correction           -0.142008 eV
 added-field ion interaction       -179.027643 eV  (added to PSCEN)


 Broyden mixing:
  rms(total) = 0.55506E-03    rms(broyden)= 0.55500E-03
  rms(prec ) = 0.77744E-03
  weight for this iteration     100.00

 eigenvalues of (default mixing * dielectric matrix)
  average eigenvalue GAMMA=   1.3598
  6.3807  4.2370  2.6621  2.6621  1.6897  1.6897  1.3479  0.8245  0.8245  1.0099
  1.0099  1.0088  0.8083  0.5807  0.3486  0.3486  0.4604  0.4604  0.3838  0.4135
  0.4109  0.3527

 Free energy of the ion-electron system (eV)
  ---------------------------------------------------
  alpha Z        PSCENC =       538.90294558
  Ewald energy   TEWEN  =    164226.44806453
  -Hartree energ DENC   =   -211601.75032467
  -exchange      EXHF   =         0.00000000
  -V(xc)+E(xc)   XCENC  =      1581.48002814
  PAW double counting   =     46406.76492461   -50247.98439113
  entropy T*S    EENTRO =        -0.00867925
  eigenvalues    EBANDS =     -1050.08001175
  atomic energy  EATOM  =     50037.92390023
  Solvation  Ediel_sol  =         0.00000000
  ---------------------------------------------------
  free energy    TOTEN  =      -108.30354370 eV

  energy without entropy =     -108.29486445  energy(sigma->0) =     -108.30137389


--------------------------------------------------------------------------------------------------------




--------------------------------------- Iteration      1(  35)  ---------------------------------------


    POTLOK:  cpu time    0.0966: real time    0.0974
    SETDIJ:  cpu time    0.0054: real time    0.0055
    EDDIAG:  cpu time    3.2093: real time    3.2371
  RMM-DIIS:  cpu time    7.2381: real time    7.2943
    ORTHCH:  cpu time    0.6562: real time    0.6605
       DOS:  cpu time    0.0010: real time    0.0010
    CHARGE:  cpu time    0.7412: real time    0.7469
    MIXING:  cpu time    0.0090: real time    0.0091
    --------------------------------------------
      LOOP:  cpu time   11.9569: real time   12.0517

 eigenvalue-minimisations  :  2277
 total energy-change (2. order) :-0.5307268E-04  (-0.4306548E-06)
 number of electron     395.9998001 magnetization 
 augmentation part      253.5960521 magnetization 

 DIPCOR: dipole corrections for dipol
 direction  3 min pos   176,
 dipolmoment           0.000000      0.000000      1.436434 electrons x Angstroem
 Tr[quadrupol]     -4138.448684

 energy correction for charged system         0.000000 eV
 dipol+quadrupol energy correction           -0.141421 eV
 added-field ion interaction       -158.397260 eV  (added to PSCEN)


 Broyden mixing:
  rms(total) = 0.76733E-03    rms(broyden)= 0.76732E-03
  rms(prec ) = 0.17435E-02
  weight for this iteration     100.00

 eigenvalues of (default mixing * dielectric matrix)
  average eigenvalue GAMMA=   1.3705
  6.0704  5.0383  2.4798  2.1966  2.1966  1.5387  1.5387  1.2425  1.2425  0.8245
  0.8245  0.9246  0.9246  0.7913  0.5841  0.3486  0.3486  0.4454  0.4454  0.4179
  0.3850  0.3801  0.3331

 Free energy of the ion-electron system (eV)
  ---------------------------------------------------
  alpha Z        PSCENC =       559.53391488
  Ewald energy   TEWEN  =    164226.44806453
  -Hartree energ DENC   =   -211601.98523056
  -exchange      EXHF   =         0.00000000
  -V(xc)+E(xc)   XCENC  =      1581.47906246
  PAW double counting   =     46407.09801480   -50248.33191570
  entropy T*S    EENTRO =        -0.00873642
  eigenvalues    EBANDS =     -1070.46067099
  atomic energy  EATOM  =     50037.92390023
  Solvation  Ediel_sol  =         0.00000000
  ---------------------------------------------------
  free energy    TOTEN  =      -108.30359678 eV

  energy without entropy =     -108.29486035  energy(sigma->0) =     -108.30141267


--------------------------------------------------------------------------------------------------------




--------------------------------------- Iteration      1(  36)  ---------------------------------------


    POTLOK:  cpu time    0.0952: real time    0.0960
    SETDIJ:  cpu time    0.0056: real time    0.0056
    EDDIAG:  cpu time    2.8882: real time    2.9119
  RMM-DIIS:  cpu time    6.1380: real time    6.1841
    ORTHCH:  cpu time    0.7058: real time    0.7107
       DOS:  cpu time    0.0011: real time    0.0049
    CHARGE:  cpu time    0.8658: real time    0.8728
    MIXING:  cpu time    0.0096: real time    0.0096
    --------------------------------------------
      LOOP:  cpu time   10.7093: real time   10.7956

 eigenvalue-minimisations  :  2326
 total energy-change (2. order) :-0.2654888E-04  (-0.2069167E-06)
 number of electron     395.9998001 magnetization 
 augmentation part      253.5973528 magnetization 

 DIPCOR: dipole corrections for dipol
 direction  3 min pos   175,
 dipolmoment           0.000000      0.000000      1.435469 electrons x Angstroem
 Tr[quadrupol]     -4138.207011

 energy correction for charged system         0.000000 eV
 dipol+quadrupol energy correction           -0.141231 eV
 added-field ion interaction       -148.025991 eV  (added to PSCEN)


 Broyden mixing:
  rms(total) = 0.75367E-03    rms(broyden)= 0.75366E-03
  rms(prec ) = 0.16498E-02
  weight for this iteration     100.00

 eigenvalues of (default mixing * dielectric matrix)
  average eigenvalue GAMMA=   1.4739
  6.1152  6.1152  2.8764  2.8764  2.0471  2.0471  1.6214  1.6214  0.8245  0.8245
  1.0863  0.9264  0.9264  0.9609  0.8209  0.5828  0.3486  0.3486  0.4446  0.4446
  0.4181  0.3852  0.3813  0.3312

 Free energy of the ion-electron system (eV)
  ---------------------------------------------------
  alpha Z        PSCENC =       569.90537375
  Ewald energy   TEWEN  =    164226.44806453
  -Hartree energ DENC   =   -211601.96396462
  -exchange      EXHF   =         0.00000000
  -V(xc)+E(xc)   XCENC  =      1581.47690304
  PAW double counting   =     46407.07202758   -50248.30164328
  entropy T*S    EENTRO =        -0.00872779
  eigenvalues    EBANDS =     -1080.85555676
  atomic energy  EATOM  =     50037.92390023
  Solvation  Ediel_sol  =         0.00000000
  ---------------------------------------------------
  free energy    TOTEN  =      -108.30362332 eV

  energy without entropy =     -108.29489554  energy(sigma->0) =     -108.30144138


--------------------------------------------------------------------------------------------------------




--------------------------------------- Iteration      1(  37)  ---------------------------------------


    POTLOK:  cpu time    0.0937: real time    0.0945
    SETDIJ:  cpu time    0.0054: real time    0.0054
    EDDIAG:  cpu time    3.1895: real time    3.2172
  RMM-DIIS:  cpu time    7.2526: real time    7.3065
    ORTHCH:  cpu time    0.7088: real time    0.7137
       DOS:  cpu time    0.0011: real time    0.0011
    CHARGE:  cpu time    0.8566: real time    0.8644
    MIXING:  cpu time    0.0090: real time    0.0090
    --------------------------------------------
      LOOP:  cpu time   12.1167: real time   12.2119

 eigenvalue-minimisations  :  2314
 total energy-change (2. order) :-0.7951439E-04  (-0.7845753E-06)
 number of electron     395.9998001 magnetization 
 augmentation part      253.5952909 magnetization 

 DIPCOR: dipole corrections for dipol
 direction  3 min pos   173,
 dipolmoment           0.000000      0.000000      1.432477 electrons x Angstroem
 Tr[quadrupol]     -4137.727357

 energy correction for charged system         0.000000 eV
 dipol+quadrupol energy correction           -0.140643 eV
 added-field ion interaction       -127.317231 eV  (added to PSCEN)


 Broyden mixing:
  rms(total) = 0.89830E-03    rms(broyden)= 0.89829E-03
  rms(prec ) = 0.20724E-02
  weight for this iteration     100.00

 eigenvalues of (default mixing * dielectric matrix)
  average eigenvalue GAMMA=   1.5287
  7.7004  6.1352  3.1213  3.1213  2.2527  2.2527  1.5042  1.5042  0.8245  0.8245
  0.9876  0.9876  0.9905  0.9905  0.8361  0.5804  0.5109  0.3486  0.3486  0.4429
  0.4429  0.4183  0.3845  0.3782  0.3278

 Free energy of the ion-electron system (eV)
  ---------------------------------------------------
  alpha Z        PSCENC =       590.61472260
  Ewald energy   TEWEN  =    164226.44806453
  -Hartree energ DENC   =   -211602.17144798
  -exchange      EXHF   =         0.00000000
  -V(xc)+E(xc)   XCENC  =      1581.48073967
  PAW double counting   =     46406.91679964   -50248.14258518
  entropy T*S    EENTRO =        -0.00878238
  eigenvalues    EBANDS =     -1101.36511397
  atomic energy  EATOM  =     50037.92390023
  Solvation  Ediel_sol  =         0.00000000
  ---------------------------------------------------
  free energy    TOTEN  =      -108.30370284 eV

  energy without entropy =     -108.29492046  energy(sigma->0) =     -108.30150724


--------------------------------------------------------------------------------------------------------




--------------------------------------- Iteration      1(  38)  ---------------------------------------


    POTLOK:  cpu time    0.0948: real time    0.0957
    SETDIJ:  cpu time    0.0052: real time    0.0053
    EDDIAG:  cpu time    3.0469: real time    3.0723
  RMM-DIIS:  cpu time    5.7273: real time    5.7682
    ORTHCH:  cpu time    0.6754: real time    0.6801
       DOS:  cpu time    0.0010: real time    0.0010
    --------------------------------------------
      LOOP:  cpu time    9.5506: real time    9.6225

 eigenvalue-minimisations  :  2242
 total energy-change (2. order) : 0.7321883E-05  (-0.1720739E-06)
 number of electron     395.9998001 magnetization 
 augmentation part      253.5952909 magnetization 

 DIPCOR: dipole corrections for dipol
 direction  3 min pos   171,
 dipolmoment           0.000000      0.000000      1.432369 electrons x Angstroem
 Tr[quadrupol]     -4137.233345

 energy correction for charged system         0.000000 eV
 dipol+quadrupol energy correction           -0.140622 eV
 added-field ion interaction       -106.413383 eV  (added to PSCEN)


 Free energy of the ion-electron system (eV)
  ---------------------------------------------------
  alpha Z        PSCENC =       611.51859093
  Ewald energy   TEWEN  =    164226.44806453
  -Hartree energ DENC   =   -211602.17543109
  -exchange      EXHF   =         0.00000000
  -V(xc)+E(xc)   XCENC  =      1581.48034548
  PAW double counting   =     46406.91519361   -50248.13782713
  entropy T*S    EENTRO =        -0.00876646
  eigenvalues    EBANDS =     -1122.26776562
  atomic energy  EATOM  =     50037.92390023
  Solvation  Ediel_sol  =         0.00000000
  ---------------------------------------------------
  free energy    TOTEN  =      -108.30369552 eV

  energy without entropy =     -108.29492906  energy(sigma->0) =     -108.30150390


--------------------------------------------------------------------------------------------------------




 average (electrostatic) potential at core
  the test charge radii are     0.9430
  (the norm of the test charge is              1.0000)
       1 -71.1473       2 -71.1477       3 -71.1481       4 -71.1466       5 -71.1458
       6 -71.1469       7 -71.1471       8 -71.1475       9 -71.1481      10 -71.5174
      11 -71.5263      12 -71.5151      13 -71.5372      14 -71.5543      15 -71.5432
      16 -71.5370      17 -71.5541      18 -71.5428      19 -71.5191      20 -71.5125
      21 -71.5131      22 -71.5043      23 -71.4991      24 -71.5050      25 -71.5187
      26 -71.5128      27 -71.5142      28 -71.1660      29 -71.1717      30 -71.1662
      31 -71.1398      32 -71.1124      33 -71.1144      34 -71.1417      35 -71.1093
      36 -71.1192
 
 
 
 E-fermi :  -0.1324     XC(G=0):  -5.0010     alpha+bet : -4.5932


 k-point     1 :       0.1250    0.1250    0.0000
  band No.  band energies     occupation 
      1      -8.5428      2.00000
      2      -6.9964      2.00000
      3      -6.7184      2.00000
      4      -6.7122      2.00000
      5      -5.7342      2.00000
      6      -5.7281      2.00000
      7      -5.4817      2.00000
      8      -5.4749      2.00000
      9      -5.2809      2.00000
     10      -5.1019      2.00000
     11      -4.9689      2.00000
     12      -4.9623      2.00000
     13      -4.7498      2.00000
     14      -4.7476      2.00000
     15      -4.6497      2.00000
     16      -4.5678      2.00000
     17      -4.3500      2.00000
     18      -4.3238      2.00000
     19      -4.3138      2.00000
     20      -4.2934      2.00000
     21      -4.2859      2.00000
     22      -4.2404      2.00000
     23      -4.1700      2.00000
     24      -4.1107      2.00000
     25      -4.1093      2.00000
     26      -4.0480      2.00000
     27      -4.0346      2.00000
     28      -4.0305      2.00000
     29      -3.9963      2.00000
     30      -3.9911      2.00000
     31      -3.9851      2.00000
     32      -3.9748      2.00000
     33      -3.9675      2.00000
     34      -3.8995      2.00000
     35      -3.8940      2.00000
     36      -3.8911      2.00000
     37      -3.8853      2.00000
     38      -3.8757      2.00000
     39      -3.7951      2.00000
     40      -3.7912      2.00000
     41      -3.7439      2.00000
     42      -3.7273      2.00000
     43      -3.7028      2.00000
     44      -3.6962      2.00000
     45      -3.6096      2.00000
     46      -3.4987      2.00000
     47      -3.4953      2.00000
     48      -3.4852      2.00000
     49      -3.4794      2.00000
     50      -3.4465      2.00000
     51      -3.4193      2.00000
     52      -3.3977      2.00000
     53      -3.3912      2.00000
     54      -3.3890      2.00000
     55      -3.3476      2.00000
     56      -3.2812      2.00000
     57      -3.2798      2.00000
     58      -3.2599      2.00000
     59      -3.2182      2.00000
     60      -3.2151      2.00000
     61      -3.2122      2.00000
     62      -3.1902      2.00000
     63      -3.1679      2.00000
     64      -3.1624      2.00000
     65      -3.1592      2.00000
     66      -3.1425      2.00000
     67      -3.1355      2.00000
     68      -3.1306      2.00000
     69      -3.0797      2.00000
     70      -3.0766      2.00000
     71      -3.0719      2.00000
     72      -2.9745      2.00000
     73      -2.9652      2.00000
     74      -2.9548      2.00000
     75      -2.9464      2.00000
     76      -2.9197      2.00000
     77      -2.9061      2.00000
     78      -2.9009      2.00000
     79      -2.8661      2.00000
     80      -2.8611      2.00000
     81      -2.8519      2.00000
     82      -2.8438      2.00000
     83      -2.8391      2.00000
     84      -2.8339      2.00000
     85      -2.8164      2.00000
     86      -2.8131      2.00000
     87      -2.8078      2.00000
     88      -2.8023      2.00000
     89      -2.7990      2.00000
     90      -2.7894      2.00000
     91      -2.7809      2.00000
     92      -2.7717      2.00000
     93      -2.7620      2.00000
     94      -2.7491      2.00000
     95      -2.7333      2.00000
     96      -2.7295      2.00000
     97      -2.6836      2.00000
     98      -2.6797      2.00000
     99      -2.6350      2.00000
    100      -2.5812      2.00000
    101      -2.5799      2.00000
    102      -2.5465      2.00000
    103      -2.5421      2.00000
    104      -2.4384      2.00000
    105      -2.4269      2.00000
    106      -2.4206      2.00000
    107      -2.4176      2.00000
    108      -2.3884      2.00000
    109      -2.3817      2.00000
    110      -2.3705      2.00000
    111      -2.3649      2.00000
    112      -2.3504      2.00000
    113      -2.3229      2.00000
    114      -2.3188      2.00000
    115      -2.3182      2.00000
    116      -2.3142      2.00000
    117      -2.2951      2.00000
    118      -2.2876      2.00000
    119      -2.2830      2.00000
    120      -2.2799      2.00000
    121      -2.2656      2.00000
    122      -2.2614      2.00000
    123      -2.2393      2.00000
    124      -2.2196      2.00000
    125      -2.2132      2.00000
    126      -2.2107      2.00000
    127      -2.2059      2.00000
    128      -2.1921      2.00000
    129      -2.1911      2.00000
    130      -2.1843      2.00000
    131      -2.1829      2.00000
    132      -2.1791      2.00000
    133      -2.1749      2.00000
    134      -2.1738      2.00000
    135      -2.1630      2.00000
    136      -2.1600      2.00000
    137      -2.1124      2.00000
    138      -2.0953      2.00000
    139      -2.0617      2.00000
    140      -2.0373      2.00000
    141      -2.0283      2.00000
    142      -2.0227      2.00000
    143      -2.0075      2.00000
    144      -1.9972      2.00000
    145      -1.9945      2.00000
    146      -1.9919      2.00000
    147      -1.9814      2.00000
    148      -1.9795      2.00000
    149      -1.9777      2.00000
    150      -1.9765      2.00000
    151      -1.9455      2.00000
    152      -1.9438      2.00000
    153      -1.8959      2.00000
    154      -1.8640      2.00000
    155      -1.8619      2.00000
    156      -1.8536      2.00000
    157      -1.8518      2.00000
    158      -1.8419      2.00000
    159      -1.8379      2.00000
    160      -1.8273      2.00000
    161      -1.8214      2.00000
    162      -1.8191      2.00000
    163      -1.8175      2.00000
    164      -1.8162      2.00000
    165      -1.8151      2.00000
    166      -1.8069      2.00000
    167      -1.8025      2.00000
    168      -1.8007      2.00000
    169      -1.7771      2.00000
    170      -1.7759      2.00000
    171      -1.7396      2.00000
    172      -1.7370      2.00000
    173      -1.7356      2.00000
    174      -1.7313      2.00000
    175      -1.7283      2.00000
    176      -1.6897      2.00000
    177      -1.6544      2.00000
    178      -1.6539      2.00000
    179      -1.6528      2.00000
    180      -1.6508      2.00000
    181      -1.6427      2.00000
    182      -1.6357      2.00000
    183      -1.6345      2.00000
    184      -1.6222      2.00000
    185      -1.6022      2.00000
    186      -1.5912      2.00000
    187      -1.5897      2.00000
    188      -1.5886      2.00000
    189      -1.5825      2.00000
    190      -1.5799      2.00000
    191      -1.5759      2.00000
    192      -1.5295      2.00000
    193      -1.1087      2.00000
    194      -1.1054      2.00000
    195      -0.8499      1.99998
    196      -0.8484      1.99997
    197      -0.7705      1.99977
    198      -0.5012      1.99263
    199      -0.3842      2.06440
    200      -0.1568      1.25462
    201      -0.1527      1.21286
    202       0.1161     -0.06753
    203       0.1219     -0.06196
    204       0.9770      0.00000
    205       1.0498      0.00000
    206       1.1633      0.00000
    207       1.5397      0.00000
    208       1.5465      0.00000
    209       1.9863      0.00000
    210       1.9880      0.00000
    211       2.0526      0.00000
    212       2.0869      0.00000
    213       2.0988      0.00000
    214       3.3021      0.00000
    215       3.3571      0.00000
    216       3.3623      0.00000
    217       3.4265      0.00000
    218       3.4976      0.00000
    219       3.6171      0.00000
    220       3.6204      0.00000
    221       3.8467      0.00000
    222       3.8885      0.00000
    223       3.8941      0.00000
    224       4.0143      0.00000
    225       4.0231      0.00000
    226       4.0365      0.00000
    227       4.0336      0.00000
    228       4.7356      0.00000
    229       4.7372      0.00000
    230       5.0374      0.00000
    231       5.0394      0.00000
    232       5.1169      0.00000
    233       5.1204      0.00000
    234       5.2807      0.00000
    235       5.3943      0.00000
    236       5.4881      0.00000
    237       5.4887      0.00000
    238       5.5665      0.00000
    239       5.6380      0.00000
    240       5.6524      0.00000

 k-point     2 :       0.3750    0.1250    0.0000
  band No.  band energies     occupation 
      1      -8.2182      2.00000
      2      -7.5901      2.00000
      3      -6.6967      2.00000
      4      -6.4299      2.00000
      5      -6.1448      2.00000
      6      -5.9091      2.00000
      7      -5.4915      2.00000
      8      -5.2246      2.00000
      9      -5.1003      2.00000
     10      -4.9572      2.00000
     11      -4.8624      2.00000
     12      -4.7921      2.00000
     13      -4.7655      2.00000
     14      -4.7549      2.00000
     15      -4.5116      2.00000
     16      -4.4846      2.00000
     17      -4.4785      2.00000
     18      -4.4219      2.00000
     19      -4.4143      2.00000
     20      -4.3758      2.00000
     21      -4.2613      2.00000
     22      -4.2183      2.00000
     23      -4.2041      2.00000
     24      -4.1734      2.00000
     25      -4.1310      2.00000
     26      -4.1068      2.00000
     27      -4.0884      2.00000
     28      -4.0763      2.00000
     29      -4.0697      2.00000
     30      -4.0429      2.00000
     31      -4.0179      2.00000
     32      -4.0084      2.00000
     33      -3.9263      2.00000
     34      -3.9169      2.00000
     35      -3.8396      2.00000
     36      -3.8279      2.00000
     37      -3.8038      2.00000
     38      -3.7987      2.00000
     39      -3.7399      2.00000
     40      -3.7324      2.00000
     41      -3.7153      2.00000
     42      -3.6895      2.00000
     43      -3.6714      2.00000
     44      -3.6146      2.00000
     45      -3.6118      2.00000
     46      -3.6008      2.00000
     47      -3.5490      2.00000
     48      -3.5099      2.00000
     49      -3.5023      2.00000
     50      -3.4794      2.00000
     51      -3.4785      2.00000
     52      -3.4136      2.00000
     53      -3.3814      2.00000
     54      -3.3621      2.00000
     55      -3.3456      2.00000
     56      -3.3335      2.00000
     57      -3.3166      2.00000
     58      -3.3039      2.00000
     59      -3.2675      2.00000
     60      -3.2577      2.00000
     61      -3.2387      2.00000
     62      -3.2344      2.00000
     63      -3.2205      2.00000
     64      -3.2196      2.00000
     65      -3.1975      2.00000
     66      -3.1909      2.00000
     67      -3.1717      2.00000
     68      -3.1056      2.00000
     69      -3.0652      2.00000
     70      -3.0386      2.00000
     71      -3.0210      2.00000
     72      -3.0192      2.00000
     73      -3.0039      2.00000
     74      -2.9859      2.00000
     75      -2.9428      2.00000
     76      -2.9178      2.00000
     77      -2.8965      2.00000
     78      -2.8925      2.00000
     79      -2.8832      2.00000
     80      -2.8779      2.00000
     81      -2.8718      2.00000
     82      -2.8668      2.00000
     83      -2.8609      2.00000
     84      -2.8488      2.00000
     85      -2.8411      2.00000
     86      -2.8224      2.00000
     87      -2.8129      2.00000
     88      -2.8080      2.00000
     89      -2.7861      2.00000
     90      -2.7769      2.00000
     91      -2.7716      2.00000
     92      -2.7596      2.00000
     93      -2.7444      2.00000
     94      -2.7110      2.00000
     95      -2.7019      2.00000
     96      -2.6736      2.00000
     97      -2.6520      2.00000
     98      -2.6441      2.00000
     99      -2.5904      2.00000
    100      -2.5808      2.00000
    101      -2.5409      2.00000
    102      -2.5364      2.00000
    103      -2.5248      2.00000
    104      -2.5219      2.00000
    105      -2.5145      2.00000
    106      -2.5126      2.00000
    107      -2.4937      2.00000
    108      -2.4893      2.00000
    109      -2.4792      2.00000
    110      -2.4584      2.00000
    111      -2.4429      2.00000
    112      -2.4310      2.00000
    113      -2.4059      2.00000
    114      -2.4008      2.00000
    115      -2.3803      2.00000
    116      -2.3758      2.00000
    117      -2.3719      2.00000
    118      -2.3680      2.00000
    119      -2.3496      2.00000
    120      -2.3369      2.00000
    121      -2.3223      2.00000
    122      -2.3174      2.00000
    123      -2.2918      2.00000
    124      -2.2885      2.00000
    125      -2.2798      2.00000
    126      -2.2227      2.00000
    127      -2.1956      2.00000
    128      -2.1735      2.00000
    129      -2.1662      2.00000
    130      -2.1605      2.00000
    131      -2.1514      2.00000
    132      -2.1438      2.00000
    133      -2.1218      2.00000
    134      -2.1103      2.00000
    135      -2.1059      2.00000
    136      -2.1028      2.00000
    137      -2.0901      2.00000
    138      -2.0859      2.00000
    139      -2.0729      2.00000
    140      -2.0633      2.00000
    141      -2.0541      2.00000
    142      -2.0512      2.00000
    143      -2.0444      2.00000
    144      -2.0398      2.00000
    145      -2.0210      2.00000
    146      -2.0147      2.00000
    147      -1.9983      2.00000
    148      -1.9897      2.00000
    149      -1.9588      2.00000
    150      -1.9533      2.00000
    151      -1.9489      2.00000
    152      -1.9165      2.00000
    153      -1.9001      2.00000
    154      -1.8965      2.00000
    155      -1.8823      2.00000
    156      -1.8801      2.00000
    157      -1.8484      2.00000
    158      -1.8407      2.00000
    159      -1.8206      2.00000
    160      -1.8163      2.00000
    161      -1.8154      2.00000
    162      -1.8077      2.00000
    163      -1.7990      2.00000
    164      -1.7962      2.00000
    165      -1.7918      2.00000
    166      -1.7801      2.00000
    167      -1.7591      2.00000
    168      -1.7577      2.00000
    169      -1.7568      2.00000
    170      -1.7542      2.00000
    171      -1.7439      2.00000
    172      -1.7337      2.00000
    173      -1.7304      2.00000
    174      -1.7259      2.00000
    175      -1.7111      2.00000
    176      -1.6902      2.00000
    177      -1.6721      2.00000
    178      -1.6639      2.00000
    179      -1.6510      2.00000
    180      -1.6468      2.00000
    181      -1.6383      2.00000
    182      -1.6099      2.00000
    183      -1.5954      2.00000
    184      -1.5940      2.00000
    185      -1.5785      2.00000
    186      -1.5560      2.00000
    187      -1.5024      2.00000
    188      -1.4636      2.00000
    189      -1.4412      2.00000
    190      -1.3808      2.00000
    191      -1.3404      2.00000
    192      -1.2742      2.00000
    193      -1.2046      2.00000
    194      -0.8515      1.99998
    195      -0.7616      1.99971
    196      -0.6279      1.99556
    197      -0.4562      2.00717
    198      -0.0363      0.14483
    199       0.1501     -0.03576
    200       0.1601     -0.02752
    201       0.2394      0.00784
    202       0.3407      0.00601
    203       0.4831      0.00041
    204       0.6754      0.00000
    205       0.9148      0.00000
    206       1.1136      0.00000
    207       1.4901      0.00000
    208       1.6163      0.00000
    209       1.9040      0.00000
    210       1.9132      0.00000
    211       2.3788      0.00000
    212       2.4047      0.00000
    213       2.4985      0.00000
    214       2.5155      0.00000
    215       2.5821      0.00000
    216       2.6001      0.00000
    217       2.9255      0.00000
    218       3.0399      0.00000
    219       3.0482      0.00000
    220       3.1313      0.00000
    221       3.5789      0.00000
    222       3.5894      0.00000
    223       3.7505      0.00000
    224       3.9715      0.00000
    225       3.9941      0.00000
    226       4.0199      0.00000
    227       4.2332      0.00000
    228       4.3112      0.00000
    229       4.3690      0.00000
    230       4.3944      0.00000
    231       4.6557      0.00000
    232       4.8570      0.00000
    233       4.8767      0.00000
    234       5.0339      0.00000
    235       5.1722      0.00000
    236       5.3304      0.00000
    237       5.4066      0.00000
    238       5.4372      0.00000
    239       5.6483      0.00000
    240       5.9145      0.00000

 k-point     3 :      -0.3750    0.1250    0.0000
  band No.  band energies     occupation 
      1      -8.2182      2.00000
      2      -7.5901      2.00000
      3      -6.6967      2.00000
      4      -6.4299      2.00000
      5      -6.1448      2.00000
      6      -5.9091      2.00000
      7      -5.4915      2.00000
      8      -5.2246      2.00000
      9      -5.1003      2.00000
     10      -4.9572      2.00000
     11      -4.8624      2.00000
     12      -4.7920      2.00000
     13      -4.7658      2.00000
     14      -4.7546      2.00000
     15      -4.5116      2.00000
     16      -4.4845      2.00000
     17      -4.4787      2.00000
     18      -4.4217      2.00000
     19      -4.4140      2.00000
     20      -4.3764      2.00000
     21      -4.2613      2.00000
     22      -4.2183      2.00000
     23      -4.2040      2.00000
     24      -4.1733      2.00000
     25      -4.1309      2.00000
     26      -4.1070      2.00000
     27      -4.0883      2.00000
     28      -4.0764      2.00000
     29      -4.0693      2.00000
     30      -4.0432      2.00000
     31      -4.0181      2.00000
     32      -4.0080      2.00000
     33      -3.9268      2.00000
     34      -3.9164      2.00000
     35      -3.8397      2.00000
     36      -3.8281      2.00000
     37      -3.8037      2.00000
     38      -3.7986      2.00000
     39      -3.7403      2.00000
     40      -3.7327      2.00000
     41      -3.7151      2.00000
     42      -3.6888      2.00000
     43      -3.6717      2.00000
     44      -3.6145      2.00000
     45      -3.6117      2.00000
     46      -3.6008      2.00000
     47      -3.5492      2.00000
     48      -3.5102      2.00000
     49      -3.5024      2.00000
     50      -3.4791      2.00000
     51      -3.4783      2.00000
     52      -3.4140      2.00000
     53      -3.3819      2.00000
     54      -3.3618      2.00000
     55      -3.3455      2.00000
     56      -3.3336      2.00000
     57      -3.3164      2.00000
     58      -3.3037      2.00000
     59      -3.2678      2.00000
     60      -3.2578      2.00000
     61      -3.2385      2.00000
     62      -3.2337      2.00000
     63      -3.2210      2.00000
     64      -3.2197      2.00000
     65      -3.1974      2.00000
     66      -3.1910      2.00000
     67      -3.1714      2.00000
     68      -3.1053      2.00000
     69      -3.0651      2.00000
     70      -3.0384      2.00000
     71      -3.0212      2.00000
     72      -3.0192      2.00000
     73      -3.0040      2.00000
     74      -2.9857      2.00000
     75      -2.9431      2.00000
     76      -2.9177      2.00000
     77      -2.8969      2.00000
     78      -2.8923      2.00000
     79      -2.8823      2.00000
     80      -2.8782      2.00000
     81      -2.8727      2.00000
     82      -2.8675      2.00000
     83      -2.8620      2.00000
     84      -2.8473      2.00000
     85      -2.8407      2.00000
     86      -2.8219      2.00000
     87      -2.8125      2.00000
     88      -2.8084      2.00000
     89      -2.7866      2.00000
     90      -2.7763      2.00000
     91      -2.7713      2.00000
     92      -2.7598      2.00000
     93      -2.7447      2.00000
     94      -2.7113      2.00000
     95      -2.7020      2.00000
     96      -2.6735      2.00000
     97      -2.6521      2.00000
     98      -2.6437      2.00000
     99      -2.5904      2.00000
    100      -2.5811      2.00000
    101      -2.5411      2.00000
    102      -2.5368      2.00000
    103      -2.5236      2.00000
    104      -2.5216      2.00000
    105      -2.5146      2.00000
    106      -2.5133      2.00000
    107      -2.4942      2.00000
    108      -2.4880      2.00000
    109      -2.4789      2.00000
    110      -2.4586      2.00000
    111      -2.4436      2.00000
    112      -2.4309      2.00000
    113      -2.4066      2.00000
    114      -2.4010      2.00000
    115      -2.3800      2.00000
    116      -2.3759      2.00000
    117      -2.3723      2.00000
    118      -2.3672      2.00000
    119      -2.3501      2.00000
    120      -2.3369      2.00000
    121      -2.3226      2.00000
    122      -2.3166      2.00000
    123      -2.2921      2.00000
    124      -2.2881      2.00000
    125      -2.2798      2.00000
    126      -2.2228      2.00000
    127      -2.1958      2.00000
    128      -2.1736      2.00000
    129      -2.1663      2.00000
    130      -2.1605      2.00000
    131      -2.1503      2.00000
    132      -2.1437      2.00000
    133      -2.1225      2.00000
    134      -2.1092      2.00000
    135      -2.1050      2.00000
    136      -2.1026      2.00000
    137      -2.0908      2.00000
    138      -2.0864      2.00000
    139      -2.0745      2.00000
    140      -2.0634      2.00000
    141      -2.0537      2.00000
    142      -2.0505      2.00000
    143      -2.0447      2.00000
    144      -2.0406      2.00000
    145      -2.0210      2.00000
    146      -2.0142      2.00000
    147      -1.9982      2.00000
    148      -1.9900      2.00000
    149      -1.9583      2.00000
    150      -1.9529      2.00000
    151      -1.9491      2.00000
    152      -1.9169      2.00000
    153      -1.9007      2.00000
    154      -1.8961      2.00000
    155      -1.8821      2.00000
    156      -1.8801      2.00000
    157      -1.8487      2.00000
    158      -1.8406      2.00000
    159      -1.8207      2.00000
    160      -1.8165      2.00000
    161      -1.8153      2.00000
    162      -1.8078      2.00000
    163      -1.7991      2.00000
    164      -1.7960      2.00000
    165      -1.7916      2.00000
    166      -1.7806      2.00000
    167      -1.7587      2.00000
    168      -1.7578      2.00000
    169      -1.7567      2.00000
    170      -1.7541      2.00000
    171      -1.7439      2.00000
    172      -1.7336      2.00000
    173      -1.7303      2.00000
    174      -1.7262      2.00000
    175      -1.7109      2.00000
    176      -1.6902      2.00000
    177      -1.6721      2.00000
    178      -1.6642      2.00000
    179      -1.6506      2.00000
    180      -1.6468      2.00000
    181      -1.6386      2.00000
    182      -1.6100      2.00000
    183      -1.5952      2.00000
    184      -1.5942      2.00000
    185      -1.5787      2.00000
    186      -1.5550      2.00000
    187      -1.5029      2.00000
    188      -1.4635      2.00000
    189      -1.4412      2.00000
    190      -1.3807      2.00000
    191      -1.3404      2.00000
    192      -1.2742      2.00000
    193      -1.2046      2.00000
    194      -0.8515      1.99998
    195      -0.7616      1.99971
    196      -0.6279      1.99556
    197      -0.4562      2.00714
    198      -0.0363      0.14461
    199       0.1506     -0.03533
    200       0.1598     -0.02770
    201       0.2391      0.00780
    202       0.3407      0.00601
    203       0.4831      0.00041
    204       0.6754      0.00000
    205       0.9148      0.00000
    206       1.1136      0.00000
    207       1.4897      0.00000
    208       1.6164      0.00000
    209       1.9044      0.00000
    210       1.9132      0.00000
    211       2.3789      0.00000
    212       2.4047      0.00000
    213       2.4986      0.00000
    214       2.5158      0.00000
    215       2.5823      0.00000
    216       2.5995      0.00000
    217       2.9274      0.00000
    218       3.0415      0.00000
    219       3.0442      0.00000
    220       3.1314      0.00000
    221       3.5785      0.00000
    222       3.5899      0.00000
    223       3.7509      0.00000
    224       3.9712      0.00000
    225       3.9941      0.00000
    226       4.0198      0.00000
    227       4.2338      0.00000
    228       4.3105      0.00000
    229       4.3661      0.00000
    230       4.3944      0.00000
    231       4.6557      0.00000
    232       4.8567      0.00000
    233       4.8765      0.00000
    234       5.0339      0.00000
    235       5.1717      0.00000
    236       5.3315      0.00000
    237       5.4032      0.00000
    238       5.4381      0.00000
    239       5.6232      0.00000
    240       5.7419      0.00000

 k-point     4 :      -0.1250    0.1250    0.0000
  band No.  band energies     occupation 
      1      -8.5428      2.00000
      2      -6.9964      2.00000
      3      -6.7177      2.00000
      4      -6.7129      2.00000
      5      -5.7337      2.00000
      6      -5.7286      2.00000
      7      -5.4827      2.00000
      8      -5.4740      2.00000
      9      -5.2809      2.00000
     10      -5.1019      2.00000
     11      -4.9695      2.00000
     12      -4.9616      2.00000
     13      -4.7495      2.00000
     14      -4.7480      2.00000
     15      -4.6496      2.00000
     16      -4.5678      2.00000
     17      -4.3500      2.00000
     18      -4.3238      2.00000
     19      -4.3138      2.00000
     20      -4.2933      2.00000
     21      -4.2860      2.00000
     22      -4.2405      2.00000
     23      -4.1700      2.00000
     24      -4.1109      2.00000
     25      -4.1093      2.00000
     26      -4.0479      2.00000
     27      -4.0345      2.00000
     28      -4.0308      2.00000
     29      -3.9957      2.00000
     30      -3.9904      2.00000
     31      -3.9851      2.00000
     32      -3.9750      2.00000
     33      -3.9682      2.00000
     34      -3.9002      2.00000
     35      -3.8941      2.00000
     36      -3.8908      2.00000
     37      -3.8850      2.00000
     38      -3.8758      2.00000
     39      -3.7952      2.00000
     40      -3.7914      2.00000
     41      -3.7436      2.00000
     42      -3.7274      2.00000
     43      -3.7028      2.00000
     44      -3.6963      2.00000
     45      -3.6095      2.00000
     46      -3.4982      2.00000
     47      -3.4958      2.00000
     48      -3.4856      2.00000
     49      -3.4789      2.00000
     50      -3.4463      2.00000
     51      -3.4190      2.00000
     52      -3.3985      2.00000
     53      -3.3914      2.00000
     54      -3.3889      2.00000
     55      -3.3475      2.00000
     56      -3.2813      2.00000
     57      -3.2794      2.00000
     58      -3.2598      2.00000
     59      -3.2185      2.00000
     60      -3.2152      2.00000
     61      -3.2125      2.00000
     62      -3.1896      2.00000
     63      -3.1680      2.00000
     64      -3.1624      2.00000
     65      -3.1595      2.00000
     66      -3.1423      2.00000
     67      -3.1353      2.00000
     68      -3.1303      2.00000
     69      -3.0796      2.00000
     70      -3.0767      2.00000
     71      -3.0718      2.00000
     72      -2.9744      2.00000
     73      -2.9652      2.00000
     74      -2.9538      2.00000
     75      -2.9477      2.00000
     76      -2.9198      2.00000
     77      -2.9065      2.00000
     78      -2.9005      2.00000
     79      -2.8663      2.00000
     80      -2.8599      2.00000
     81      -2.8534      2.00000
     82      -2.8423      2.00000
     83      -2.8404      2.00000
     84      -2.8333      2.00000
     85      -2.8167      2.00000
     86      -2.8127      2.00000
     87      -2.8071      2.00000
     88      -2.8026      2.00000
     89      -2.8000      2.00000
     90      -2.7892      2.00000
     91      -2.7809      2.00000
     92      -2.7723      2.00000
     93      -2.7616      2.00000
     94      -2.7486      2.00000
     95      -2.7333      2.00000
     96      -2.7299      2.00000
     97      -2.6836      2.00000
     98      -2.6801      2.00000
     99      -2.6355      2.00000
    100      -2.5816      2.00000
    101      -2.5793      2.00000
    102      -2.5468      2.00000
    103      -2.5416      2.00000
    104      -2.4388      2.00000
    105      -2.4271      2.00000
    106      -2.4193      2.00000
    107      -2.4182      2.00000
    108      -2.3883      2.00000
    109      -2.3813      2.00000
    110      -2.3703      2.00000
    111      -2.3640      2.00000
    112      -2.3509      2.00000
    113      -2.3231      2.00000
    114      -2.3191      2.00000
    115      -2.3185      2.00000
    116      -2.3143      2.00000
    117      -2.2957      2.00000
    118      -2.2868      2.00000
    119      -2.2828      2.00000
    120      -2.2798      2.00000
    121      -2.2664      2.00000
    122      -2.2612      2.00000
    123      -2.2392      2.00000
    124      -2.2208      2.00000
    125      -2.2129      2.00000
    126      -2.2098      2.00000
    127      -2.2055      2.00000
    128      -2.1921      2.00000
    129      -2.1905      2.00000
    130      -2.1854      2.00000
    131      -2.1827      2.00000
    132      -2.1785      2.00000
    133      -2.1747      2.00000
    134      -2.1729      2.00000
    135      -2.1638      2.00000
    136      -2.1608      2.00000
    137      -2.1123      2.00000
    138      -2.0955      2.00000
    139      -2.0621      2.00000
    140      -2.0377      2.00000
    141      -2.0283      2.00000
    142      -2.0223      2.00000
    143      -2.0063      2.00000
    144      -1.9977      2.00000
    145      -1.9955      2.00000
    146      -1.9920      2.00000
    147      -1.9815      2.00000
    148      -1.9795      2.00000
    149      -1.9778      2.00000
    150      -1.9769      2.00000
    151      -1.9451      2.00000
    152      -1.9435      2.00000
    153      -1.8957      2.00000
    154      -1.8638      2.00000
    155      -1.8621      2.00000
    156      -1.8539      2.00000
    157      -1.8512      2.00000
    158      -1.8419      2.00000
    159      -1.8373      2.00000
    160      -1.8276      2.00000
    161      -1.8211      2.00000
    162      -1.8191      2.00000
    163      -1.8171      2.00000
    164      -1.8164      2.00000
    165      -1.8153      2.00000
    166      -1.8070      2.00000
    167      -1.8024      2.00000
    168      -1.8010      2.00000
    169      -1.7772      2.00000
    170      -1.7759      2.00000
    171      -1.7401      2.00000
    172      -1.7370      2.00000
    173      -1.7361      2.00000
    174      -1.7313      2.00000
    175      -1.7276      2.00000
    176      -1.6896      2.00000
    177      -1.6550      2.00000
    178      -1.6531      2.00000
    179      -1.6526      2.00000
    180      -1.6512      2.00000
    181      -1.6425      2.00000
    182      -1.6358      2.00000
    183      -1.6344      2.00000
    184      -1.6217      2.00000
    185      -1.6022      2.00000
    186      -1.5912      2.00000
    187      -1.5898      2.00000
    188      -1.5888      2.00000
    189      -1.5819      2.00000
    190      -1.5791      2.00000
    191      -1.5772      2.00000
    192      -1.5300      2.00000
    193      -1.1087      2.00000
    194      -1.1052      2.00000
    195      -0.8498      1.99998
    196      -0.8484      1.99997
    197      -0.7706      1.99977
    198      -0.5011      1.99264
    199      -0.3843      2.06431
    200      -0.1570      1.25686
    201      -0.1526      1.21192
    202       0.1161     -0.06749
    203       0.1219     -0.06193
    204       0.9769      0.00000
    205       1.0498      0.00000
    206       1.1632      0.00000
    207       1.5397      0.00000
    208       1.5464      0.00000
    209       1.9856      0.00000
    210       1.9884      0.00000
    211       2.0528      0.00000
    212       2.0860      0.00000
    213       2.1003      0.00000
    214       3.3015      0.00000
    215       3.3567      0.00000
    216       3.3632      0.00000
    217       3.4282      0.00000
    218       3.4974      0.00000
    219       3.6160      0.00000
    220       3.6216      0.00000
    221       3.8470      0.00000
    222       3.8892      0.00000
    223       3.8931      0.00000
    224       4.0144      0.00000
    225       4.0230      0.00000
    226       4.0360      0.00000
    227       4.0340      0.00000
    228       4.7356      0.00000
    229       4.7375      0.00000
    230       5.0367      0.00000
    231       5.0395      0.00000
    232       5.1179      0.00000
    233       5.1210      0.00000
    234       5.2644      0.00000
    235       5.3986      0.00000
    236       5.4796      0.00000
    237       5.4958      0.00000
    238       5.5014      0.00000
    239       5.5558      0.00000
    240       5.6323      0.00000

 k-point     5 :       0.1250    0.3750    0.0000
  band No.  band energies     occupation 
      1      -8.2184      2.00000
      2      -7.5903      2.00000
      3      -6.6955      2.00000
      4      -6.4313      2.00000
      5      -6.1427      2.00000
      6      -5.9104      2.00000
      7      -5.4921      2.00000
      8      -5.2250      2.00000
      9      -5.1007      2.00000
     10      -4.9574      2.00000
     11      -4.8626      2.00000
     12      -4.7924      2.00000
     13      -4.7635      2.00000
     14      -4.7559      2.00000
     15      -4.5125      2.00000
     16      -4.4844      2.00000
     17      -4.4780      2.00000
     18      -4.4230      2.00000
     19      -4.4151      2.00000
     20      -4.3746      2.00000
     21      -4.2640      2.00000
     22      -4.2138      2.00000
     23      -4.2037      2.00000
     24      -4.1678      2.00000
     25      -4.1368      2.00000
     26      -4.0990      2.00000
     27      -4.0891      2.00000
     28      -4.0802      2.00000
     29      -4.0677      2.00000
     30      -4.0400      2.00000
     31      -4.0206      2.00000
     32      -4.0144      2.00000
     33      -3.9241      2.00000
     34      -3.9175      2.00000
     35      -3.8414      2.00000
     36      -3.8303      2.00000
     37      -3.8059      2.00000
     38      -3.7961      2.00000
     39      -3.7363      2.00000
     40      -3.7319      2.00000
     41      -3.7171      2.00000
     42      -3.6887      2.00000
     43      -3.6794      2.00000
     44      -3.6135      2.00000
     45      -3.6105      2.00000
     46      -3.5986      2.00000
     47      -3.5451      2.00000
     48      -3.5068      2.00000
     49      -3.5018      2.00000
     50      -3.4840      2.00000
     51      -3.4785      2.00000
     52      -3.4160      2.00000
     53      -3.3752      2.00000
     54      -3.3669      2.00000
     55      -3.3516      2.00000
     56      -3.3282      2.00000
     57      -3.3200      2.00000
     58      -3.3068      2.00000
     59      -3.2599      2.00000
     60      -3.2546      2.00000
     61      -3.2384      2.00000
     62      -3.2334      2.00000
     63      -3.2210      2.00000
     64      -3.2128      2.00000
     65      -3.2022      2.00000
     66      -3.1947      2.00000
     67      -3.1789      2.00000
     68      -3.1046      2.00000
     69      -3.0654      2.00000
     70      -3.0346      2.00000
     71      -3.0255      2.00000
     72      -3.0208      2.00000
     73      -3.0014      2.00000
     74      -2.9886      2.00000
     75      -2.9417      2.00000
     76      -2.9200      2.00000
     77      -2.8959      2.00000
     78      -2.8890      2.00000
     79      -2.8804      2.00000
     80      -2.8774      2.00000
     81      -2.8712      2.00000
     82      -2.8675      2.00000
     83      -2.8585      2.00000
     84      -2.8547      2.00000
     85      -2.8399      2.00000
     86      -2.8258      2.00000
     87      -2.8110      2.00000
     88      -2.8097      2.00000
     89      -2.7862      2.00000
     90      -2.7769      2.00000
     91      -2.7739      2.00000
     92      -2.7522      2.00000
     93      -2.7457      2.00000
     94      -2.7117      2.00000
     95      -2.7038      2.00000
     96      -2.6768      2.00000
     97      -2.6503      2.00000
     98      -2.6472      2.00000
     99      -2.5893      2.00000
    100      -2.5756      2.00000
    101      -2.5426      2.00000
    102      -2.5381      2.00000
    103      -2.5265      2.00000
    104      -2.5199      2.00000
    105      -2.5148      2.00000
    106      -2.5110      2.00000
    107      -2.4938      2.00000
    108      -2.4887      2.00000
    109      -2.4754      2.00000
    110      -2.4590      2.00000
    111      -2.4494      2.00000
    112      -2.4331      2.00000
    113      -2.4028      2.00000
    114      -2.3876      2.00000
    115      -2.3856      2.00000
    116      -2.3787      2.00000
    117      -2.3757      2.00000
    118      -2.3692      2.00000
    119      -2.3443      2.00000
    120      -2.3369      2.00000
    121      -2.3229      2.00000
    122      -2.3044      2.00000
    123      -2.2966      2.00000
    124      -2.2890      2.00000
    125      -2.2815      2.00000
    126      -2.2217      2.00000
    127      -2.1919      2.00000
    128      -2.1756      2.00000
    129      -2.1666      2.00000
    130      -2.1603      2.00000
    131      -2.1521      2.00000
    132      -2.1424      2.00000
    133      -2.1217      2.00000
    134      -2.1112      2.00000
    135      -2.1029      2.00000
    136      -2.0992      2.00000
    137      -2.0903      2.00000
    138      -2.0876      2.00000
    139      -2.0714      2.00000
    140      -2.0614      2.00000
    141      -2.0568      2.00000
    142      -2.0557      2.00000
    143      -2.0410      2.00000
    144      -2.0404      2.00000
    145      -2.0188      2.00000
    146      -2.0159      2.00000
    147      -1.9984      2.00000
    148      -1.9892      2.00000
    149      -1.9605      2.00000
    150      -1.9545      2.00000
    151      -1.9497      2.00000
    152      -1.9161      2.00000
    153      -1.8995      2.00000
    154      -1.8940      2.00000
    155      -1.8834      2.00000
    156      -1.8801      2.00000
    157      -1.8467      2.00000
    158      -1.8397      2.00000
    159      -1.8176      2.00000
    160      -1.8167      2.00000
    161      -1.8158      2.00000
    162      -1.8073      2.00000
    163      -1.8010      2.00000
    164      -1.7970      2.00000
    165      -1.7940      2.00000
    166      -1.7805      2.00000
    167      -1.7613      2.00000
    168      -1.7584      2.00000
    169      -1.7565      2.00000
    170      -1.7547      2.00000
    171      -1.7450      2.00000
    172      -1.7318      2.00000
    173      -1.7297      2.00000
    174      -1.7263      2.00000
    175      -1.7115      2.00000
    176      -1.6905      2.00000
    177      -1.6731      2.00000
    178      -1.6618      2.00000
    179      -1.6519      2.00000
    180      -1.6478      2.00000
    181      -1.6383      2.00000
    182      -1.6090      2.00000
    183      -1.5953      2.00000
    184      -1.5937      2.00000
    185      -1.5782      2.00000
    186      -1.5548      2.00000
    187      -1.5043      2.00000
    188      -1.4645      2.00000
    189      -1.4425      2.00000
    190      -1.3810      2.00000
    191      -1.3409      2.00000
    192      -1.2748      2.00000
    193      -1.2055      2.00000
    194      -0.8527      1.99998
    195      -0.7629      1.99972
    196      -0.6284      1.99559
    197      -0.4566      2.00698
    198      -0.0372      0.15044
    199       0.1501     -0.03578
    200       0.1616     -0.02632
    201       0.2379      0.00763
    202       0.3390      0.00614
    203       0.4807      0.00044
    204       0.6777      0.00000
    205       0.9148      0.00000
    206       1.1128      0.00000
    207       1.4895      0.00000
    208       1.6192      0.00000
    209       1.9002      0.00000
    210       1.9166      0.00000
    211       2.3788      0.00000
    212       2.4023      0.00000
    213       2.4984      0.00000
    214       2.5230      0.00000
    215       2.5768      0.00000
    216       2.6004      0.00000
    217       2.9283      0.00000
    218       3.0422      0.00000
    219       3.0432      0.00000
    220       3.1313      0.00000
    221       3.5798      0.00000
    222       3.5901      0.00000
    223       3.7502      0.00000
    224       3.9697      0.00000
    225       3.9962      0.00000
    226       4.0179      0.00000
    227       4.2347      0.00000
    228       4.3135      0.00000
    229       4.3615      0.00000
    230       4.3942      0.00000
    231       4.6575      0.00000
    232       4.8568      0.00000
    233       4.8786      0.00000
    234       5.0329      0.00000
    235       5.1727      0.00000
    236       5.3312      0.00000
    237       5.4025      0.00000
    238       5.4318      0.00000
    239       5.6937      0.00000
    240       5.8006      0.00000

 k-point     6 :       0.3750    0.3750    0.0000
  band No.  band energies     occupation 
      1      -7.8983      2.00000
      2      -7.2849      2.00000
      3      -7.2780      2.00000
      4      -6.6941      2.00000
      5      -6.4005      2.00000
      6      -5.8655      2.00000
      7      -5.8569      2.00000
      8      -5.3567      2.00000
      9      -4.7701      2.00000
     10      -4.7631      2.00000
     11      -4.6283      2.00000
     12      -4.5874      2.00000
     13      -4.5790      2.00000
     14      -4.5337      2.00000
     15      -4.5068      2.00000
     16      -4.5032      2.00000
     17      -4.4777      2.00000
     18      -4.3268      2.00000
     19      -4.3108      2.00000
     20      -4.3063      2.00000
     21      -4.2890      2.00000
     22      -4.2843      2.00000
     23      -4.1641      2.00000
     24      -4.1610      2.00000
     25      -4.1314      2.00000
     26      -4.1245      2.00000
     27      -4.0943      2.00000
     28      -4.0879      2.00000
     29      -4.0773      2.00000
     30      -4.0746      2.00000
     31      -4.0057      2.00000
     32      -3.9848      2.00000
     33      -3.9821      2.00000
     34      -3.9772      2.00000
     35      -3.9317      2.00000
     36      -3.9271      2.00000
     37      -3.9073      2.00000
     38      -3.8479      2.00000
     39      -3.8451      2.00000
     40      -3.8390      2.00000
     41      -3.7980      2.00000
     42      -3.6709      2.00000
     43      -3.6330      2.00000
     44      -3.5940      2.00000
     45      -3.5908      2.00000
     46      -3.5300      2.00000
     47      -3.5193      2.00000
     48      -3.5050      2.00000
     49      -3.4990      2.00000
     50      -3.4921      2.00000
     51      -3.4772      2.00000
     52      -3.4709      2.00000
     53      -3.4371      2.00000
     54      -3.4283      2.00000
     55      -3.3984      2.00000
     56      -3.3115      2.00000
     57      -3.3027      2.00000
     58      -3.2953      2.00000
     59      -3.2879      2.00000
     60      -3.2501      2.00000
     61      -3.2427      2.00000
     62      -3.2048      2.00000
     63      -3.2026      2.00000
     64      -3.1675      2.00000
     65      -3.1591      2.00000
     66      -3.1398      2.00000
     67      -3.1339      2.00000
     68      -3.1192      2.00000
     69      -3.1107      2.00000
     70      -3.0618      2.00000
     71      -3.0530      2.00000
     72      -3.0321      2.00000
     73      -3.0288      2.00000
     74      -3.0189      2.00000
     75      -3.0089      2.00000
     76      -2.9736      2.00000
     77      -2.9396      2.00000
     78      -2.9334      2.00000
     79      -2.9292      2.00000
     80      -2.9248      2.00000
     81      -2.9222      2.00000
     82      -2.9136      2.00000
     83      -2.8556      2.00000
     84      -2.8458      2.00000
     85      -2.8422      2.00000
     86      -2.8248      2.00000
     87      -2.8021      2.00000
     88      -2.7989      2.00000
     89      -2.7726      2.00000
     90      -2.7689      2.00000
     91      -2.7452      2.00000
     92      -2.7408      2.00000
     93      -2.7363      2.00000
     94      -2.6972      2.00000
     95      -2.6951      2.00000
     96      -2.6443      2.00000
     97      -2.6352      2.00000
     98      -2.6313      2.00000
     99      -2.6133      2.00000
    100      -2.5960      2.00000
    101      -2.5898      2.00000
    102      -2.5563      2.00000
    103      -2.5424      2.00000
    104      -2.5318      2.00000
    105      -2.5264      2.00000
    106      -2.5240      2.00000
    107      -2.5195      2.00000
    108      -2.5168      2.00000
    109      -2.5053      2.00000
    110      -2.4957      2.00000
    111      -2.4447      2.00000
    112      -2.4412      2.00000
    113      -2.4388      2.00000
    114      -2.4328      2.00000
    115      -2.4155      2.00000
    116      -2.4084      2.00000
    117      -2.3927      2.00000
    118      -2.3900      2.00000
    119      -2.3847      2.00000
    120      -2.3804      2.00000
    121      -2.3751      2.00000
    122      -2.3698      2.00000
    123      -2.3634      2.00000
    124      -2.3517      2.00000
    125      -2.3486      2.00000
    126      -2.3480      2.00000
    127      -2.3169      2.00000
    128      -2.2934      2.00000
    129      -2.2899      2.00000
    130      -2.2676      2.00000
    131      -2.2091      2.00000
    132      -2.2054      2.00000
    133      -2.1578      2.00000
    134      -2.1544      2.00000
    135      -2.1080      2.00000
    136      -2.1063      2.00000
    137      -2.1055      2.00000
    138      -2.0735      2.00000
    139      -2.0528      2.00000
    140      -2.0493      2.00000
    141      -2.0460      2.00000
    142      -2.0436      2.00000
    143      -2.0372      2.00000
    144      -2.0339      2.00000
    145      -2.0290      2.00000
    146      -2.0017      2.00000
    147      -2.0014      2.00000
    148      -1.9678      2.00000
    149      -1.9642      2.00000
    150      -1.9466      2.00000
    151      -1.9183      2.00000
    152      -1.8849      2.00000
    153      -1.8791      2.00000
    154      -1.8676      2.00000
    155      -1.8612      2.00000
    156      -1.8602      2.00000
    157      -1.8591      2.00000
    158      -1.8562      2.00000
    159      -1.8396      2.00000
    160      -1.8366      2.00000
    161      -1.8332      2.00000
    162      -1.8322      2.00000
    163      -1.8183      2.00000
    164      -1.8169      2.00000
    165      -1.8155      2.00000
    166      -1.8147      2.00000
    167      -1.7491      2.00000
    168      -1.7321      2.00000
    169      -1.7271      2.00000
    170      -1.7105      2.00000
    171      -1.7096      2.00000
    172      -1.7039      2.00000
    173      -1.6948      2.00000
    174      -1.6821      2.00000
    175      -1.6816      2.00000
    176      -1.6670      2.00000
    177      -1.6665      2.00000
    178      -1.6423      2.00000
    179      -1.6399      2.00000
    180      -1.6379      2.00000
    181      -1.6342      2.00000
    182      -1.6248      2.00000
    183      -1.6237      2.00000
    184      -1.6134      2.00000
    185      -1.6059      2.00000
    186      -1.5582      2.00000
    187      -1.3790      2.00000
    188      -1.2802      2.00000
    189      -1.2600      2.00000
    190      -1.0079      2.00000
    191      -1.0064      2.00000
    192      -0.6737      1.99795
    193      -0.6714      1.99785
    194      -0.5267      1.99029
    195      -0.3430      2.09792
    196      -0.3422      2.09836
    197      -0.1967      1.62808
    198      -0.1919      1.58805
    199       0.3656      0.00428
    200       0.5800      0.00003
    201       0.5845      0.00003
    202       0.7688      0.00000
    203       0.7707      0.00000
    204       0.8611      0.00000
    205       0.8655      0.00000
    206       1.0361      0.00000
    207       1.0467      0.00000
    208       1.2717      0.00000
    209       1.2751      0.00000
    210       1.6884      0.00000
    211       1.8425      0.00000
    212       1.8538      0.00000
    213       1.9131      0.00000
    214       2.0989      0.00000
    215       2.6568      0.00000
    216       2.7085      0.00000
    217       2.9193      0.00000
    218       2.9241      0.00000
    219       3.0928      0.00000
    220       3.1008      0.00000
    221       3.3701      0.00000
    222       3.3719      0.00000
    223       3.4377      0.00000
    224       3.4398      0.00000
    225       3.6545      0.00000
    226       3.8043      0.00000
    227       3.8883      0.00000
    228       3.8894      0.00000
    229       4.0399      0.00000
    230       4.0759      0.00000
    231       4.4855      0.00000
    232       4.4930      0.00000
    233       4.6828      0.00000
    234       4.7156      0.00000
    235       4.7181      0.00000
    236       5.3721      0.00000
    237       5.3789      0.00000
    238       5.3722      0.00000
    239       5.8203      0.00000
    240       6.0101      0.00000

 k-point     7 :      -0.3750    0.3750    0.0000
  band No.  band energies     occupation 
      1      -7.8983      2.00000
      2      -7.2842      2.00000
      3      -7.2787      2.00000
      4      -6.6941      2.00000
      5      -6.4005      2.00000
      6      -5.8666      2.00000
      7      -5.8558      2.00000
      8      -5.3567      2.00000
      9      -4.7703      2.00000
     10      -4.7630      2.00000
     11      -4.6283      2.00000
     12      -4.5877      2.00000
     13      -4.5785      2.00000
     14      -4.5336      2.00000
     15      -4.5060      2.00000
     16      -4.5033      2.00000
     17      -4.4787      2.00000
     18      -4.3269      2.00000
     19      -4.3111      2.00000
     20      -4.3058      2.00000
     21      -4.2885      2.00000
     22      -4.2850      2.00000
     23      -4.1638      2.00000
     24      -4.1613      2.00000
     25      -4.1314      2.00000
     26      -4.1242      2.00000
     27      -4.0940      2.00000
     28      -4.0879      2.00000
     29      -4.0780      2.00000
     30      -4.0746      2.00000
     31      -4.0059      2.00000
     32      -3.9850      2.00000
     33      -3.9819      2.00000
     34      -3.9773      2.00000
     35      -3.9317      2.00000
     36      -3.9270      2.00000
     37      -3.9071      2.00000
     38      -3.8475      2.00000
     39      -3.8452      2.00000
     40      -3.8392      2.00000
     41      -3.7980      2.00000
     42      -3.6710      2.00000
     43      -3.6328      2.00000
     44      -3.5937      2.00000
     45      -3.5908      2.00000
     46      -3.5307      2.00000
     47      -3.5198      2.00000
     48      -3.5049      2.00000
     49      -3.4986      2.00000
     50      -3.4931      2.00000
     51      -3.4765      2.00000
     52      -3.4710      2.00000
     53      -3.4368      2.00000
     54      -3.4278      2.00000
     55      -3.3984      2.00000
     56      -3.3116      2.00000
     57      -3.3028      2.00000
     58      -3.2948      2.00000
     59      -3.2880      2.00000
     60      -3.2505      2.00000
     61      -3.2428      2.00000
     62      -3.2051      2.00000
     63      -3.2023      2.00000
     64      -3.1692      2.00000
     65      -3.1582      2.00000
     66      -3.1407      2.00000
     67      -3.1318      2.00000
     68      -3.1192      2.00000
     69      -3.1098      2.00000
     70      -3.0631      2.00000
     71      -3.0532      2.00000
     72      -3.0321      2.00000
     73      -3.0283      2.00000
     74      -3.0188      2.00000
     75      -3.0091      2.00000
     76      -2.9739      2.00000
     77      -2.9398      2.00000
     78      -2.9330      2.00000
     79      -2.9298      2.00000
     80      -2.9244      2.00000
     81      -2.9221      2.00000
     82      -2.9133      2.00000
     83      -2.8570      2.00000
     84      -2.8454      2.00000
     85      -2.8414      2.00000
     86      -2.8234      2.00000
     87      -2.8021      2.00000
     88      -2.7993      2.00000
     89      -2.7728      2.00000
     90      -2.7693      2.00000
     91      -2.7457      2.00000
     92      -2.7404      2.00000
     93      -2.7368      2.00000
     94      -2.6980      2.00000
     95      -2.6943      2.00000
     96      -2.6440      2.00000
     97      -2.6352      2.00000
     98      -2.6314      2.00000
     99      -2.6136      2.00000
    100      -2.5964      2.00000
    101      -2.5899      2.00000
    102      -2.5564      2.00000
    103      -2.5430      2.00000
    104      -2.5311      2.00000
    105      -2.5261      2.00000
    106      -2.5242      2.00000
    107      -2.5189      2.00000
    108      -2.5172      2.00000
    109      -2.5062      2.00000
    110      -2.4941      2.00000
    111      -2.4443      2.00000
    112      -2.4416      2.00000
    113      -2.4385      2.00000
    114      -2.4321      2.00000
    115      -2.4163      2.00000
    116      -2.4084      2.00000
    117      -2.3927      2.00000
    118      -2.3898      2.00000
    119      -2.3833      2.00000
    120      -2.3801      2.00000
    121      -2.3756      2.00000
    122      -2.3700      2.00000
    123      -2.3649      2.00000
    124      -2.3519      2.00000
    125      -2.3488      2.00000
    126      -2.3475      2.00000
    127      -2.3172      2.00000
    128      -2.2920      2.00000
    129      -2.2905      2.00000
    130      -2.2685      2.00000
    131      -2.2093      2.00000
    132      -2.2045      2.00000
    133      -2.1575      2.00000
    134      -2.1546      2.00000
    135      -2.1083      2.00000
    136      -2.1065      2.00000
    137      -2.1056      2.00000
    138      -2.0735      2.00000
    139      -2.0524      2.00000
    140      -2.0497      2.00000
    141      -2.0471      2.00000
    142      -2.0431      2.00000
    143      -2.0372      2.00000
    144      -2.0339      2.00000
    145      -2.0284      2.00000
    146      -2.0016      2.00000
    147      -2.0013      2.00000
    148      -1.9676      2.00000
    149      -1.9642      2.00000
    150      -1.9466      2.00000
    151      -1.9182      2.00000
    152      -1.8850      2.00000
    153      -1.8790      2.00000
    154      -1.8680      2.00000
    155      -1.8614      2.00000
    156      -1.8602      2.00000
    157      -1.8588      2.00000
    158      -1.8561      2.00000
    159      -1.8396      2.00000
    160      -1.8369      2.00000
    161      -1.8329      2.00000
    162      -1.8321      2.00000
    163      -1.8181      2.00000
    164      -1.8169      2.00000
    165      -1.8156      2.00000
    166      -1.8147      2.00000
    167      -1.7490      2.00000
    168      -1.7322      2.00000
    169      -1.7273      2.00000
    170      -1.7108      2.00000
    171      -1.7094      2.00000
    172      -1.7039      2.00000
    173      -1.6950      2.00000
    174      -1.6820      2.00000
    175      -1.6814      2.00000
    176      -1.6671      2.00000
    177      -1.6664      2.00000
    178      -1.6424      2.00000
    179      -1.6405      2.00000
    180      -1.6373      2.00000
    181      -1.6340      2.00000
    182      -1.6251      2.00000
    183      -1.6235      2.00000
    184      -1.6135      2.00000
    185      -1.6059      2.00000
    186      -1.5583      2.00000
    187      -1.3790      2.00000
    188      -1.2802      2.00000
    189      -1.2600      2.00000
    190      -1.0078      2.00000
    191      -1.0064      2.00000
    192      -0.6733      1.99793
    193      -0.6718      1.99787
    194      -0.5268      1.99028
    195      -0.3431      2.09787
    196      -0.3421      2.09841
    197      -0.1976      1.63542
    198      -0.1908      1.57826
    199       0.3655      0.00428
    200       0.5799      0.00003
    201       0.5845      0.00003
    202       0.7687      0.00000
    203       0.7705      0.00000
    204       0.8610      0.00000
    205       0.8653      0.00000
    206       1.0364      0.00000
    207       1.0465      0.00000
    208       1.2722      0.00000
    209       1.2748      0.00000
    210       1.6885      0.00000
    211       1.8448      0.00000
    212       1.8535      0.00000
    213       1.9112      0.00000
    214       2.0989      0.00000
    215       2.6570      0.00000
    216       2.7077      0.00000
    217       2.9182      0.00000
    218       2.9252      0.00000
    219       3.0918      0.00000
    220       3.1017      0.00000
    221       3.3699      0.00000
    222       3.3721      0.00000
    223       3.4380      0.00000
    224       3.4400      0.00000
    225       3.6544      0.00000
    226       3.8028      0.00000
    227       3.8875      0.00000
    228       3.8908      0.00000
    229       4.0395      0.00000
    230       4.0733      0.00000
    231       4.4851      0.00000
    232       4.4936      0.00000
    233       4.6831      0.00000
    234       4.7156      0.00000
    235       4.7181      0.00000
    236       5.3688      0.00000
    237       5.3785      0.00000
    238       5.3717      0.00000
    239       5.8198      0.00000
    240       5.8268      0.00000

 k-point     8 :      -0.1250    0.3750    0.0000
  band No.  band energies     occupation 
      1      -8.2184      2.00000
      2      -7.5903      2.00000
      3      -6.6955      2.00000
      4      -6.4313      2.00000
      5      -6.1426      2.00000
      6      -5.9104      2.00000
      7      -5.4921      2.00000
      8      -5.2250      2.00000
      9      -5.1007      2.00000
     10      -4.9574      2.00000
     11      -4.8625      2.00000
     12      -4.7923      2.00000
     13      -4.7640      2.00000
     14      -4.7554      2.00000
     15      -4.5126      2.00000
     16      -4.4843      2.00000
     17      -4.4781      2.00000
     18      -4.4238      2.00000
     19      -4.4147      2.00000
     20      -4.3743      2.00000
     21      -4.2640      2.00000
     22      -4.2139      2.00000
     23      -4.2037      2.00000
     24      -4.1679      2.00000
     25      -4.1366      2.00000
     26      -4.0991      2.00000
     27      -4.0892      2.00000
     28      -4.0801      2.00000
     29      -4.0675      2.00000
     30      -4.0398      2.00000
     31      -4.0207      2.00000
     32      -4.0145      2.00000
     33      -3.9236      2.00000
     34      -3.9181      2.00000
     35      -3.8414      2.00000
     36      -3.8300      2.00000
     37      -3.8060      2.00000
     38      -3.7963      2.00000
     39      -3.7362      2.00000
     40      -3.7320      2.00000
     41      -3.7172      2.00000
     42      -3.6889      2.00000
     43      -3.6791      2.00000
     44      -3.6136      2.00000
     45      -3.6106      2.00000
     46      -3.5982      2.00000
     47      -3.5451      2.00000
     48      -3.5066      2.00000
     49      -3.5018      2.00000
     50      -3.4844      2.00000
     51      -3.4785      2.00000
     52      -3.4160      2.00000
     53      -3.3751      2.00000
     54      -3.3674      2.00000
     55      -3.3514      2.00000
     56      -3.3278      2.00000
     57      -3.3199      2.00000
     58      -3.3072      2.00000
     59      -3.2598      2.00000
     60      -3.2546      2.00000
     61      -3.2380      2.00000
     62      -3.2335      2.00000
     63      -3.2210      2.00000
     64      -3.2127      2.00000
     65      -3.2025      2.00000
     66      -3.1947      2.00000
     67      -3.1788      2.00000
     68      -3.1045      2.00000
     69      -3.0653      2.00000
     70      -3.0345      2.00000
     71      -3.0261      2.00000
     72      -3.0211      2.00000
     73      -3.0013      2.00000
     74      -2.9881      2.00000
     75      -2.9413      2.00000
     76      -2.9193      2.00000
     77      -2.8966      2.00000
     78      -2.8897      2.00000
     79      -2.8804      2.00000
     80      -2.8778      2.00000
     81      -2.8707      2.00000
     82      -2.8668      2.00000
     83      -2.8578      2.00000
     84      -2.8561      2.00000
     85      -2.8395      2.00000
     86      -2.8256      2.00000
     87      -2.8115      2.00000
     88      -2.8080      2.00000
     89      -2.7874      2.00000
     90      -2.7769      2.00000
     91      -2.7742      2.00000
     92      -2.7519      2.00000
     93      -2.7458      2.00000
     94      -2.7116      2.00000
     95      -2.7036      2.00000
     96      -2.6773      2.00000
     97      -2.6507      2.00000
     98      -2.6474      2.00000
     99      -2.5900      2.00000
    100      -2.5755      2.00000
    101      -2.5430      2.00000
    102      -2.5363      2.00000
    103      -2.5256      2.00000
    104      -2.5200      2.00000
    105      -2.5148      2.00000
    106      -2.5106      2.00000
    107      -2.4936      2.00000
    108      -2.4888      2.00000
    109      -2.4775      2.00000
    110      -2.4590      2.00000
    111      -2.4488      2.00000
    112      -2.4336      2.00000
    113      -2.4030      2.00000
    114      -2.3882      2.00000
    115      -2.3857      2.00000
    116      -2.3779      2.00000
    117      -2.3755      2.00000
    118      -2.3683      2.00000
    119      -2.3433      2.00000
    120      -2.3370      2.00000
    121      -2.3230      2.00000
    122      -2.3051      2.00000
    123      -2.2953      2.00000
    124      -2.2888      2.00000
    125      -2.2831      2.00000
    126      -2.2216      2.00000
    127      -2.1920      2.00000
    128      -2.1753      2.00000
    129      -2.1671      2.00000
    130      -2.1603      2.00000
    131      -2.1522      2.00000
    132      -2.1422      2.00000
    133      -2.1219      2.00000
    134      -2.1117      2.00000
    135      -2.1035      2.00000
    136      -2.0985      2.00000
    137      -2.0901      2.00000
    138      -2.0880      2.00000
    139      -2.0719      2.00000
    140      -2.0613      2.00000
    141      -2.0573      2.00000
    142      -2.0557      2.00000
    143      -2.0411      2.00000
    144      -2.0398      2.00000
    145      -2.0184      2.00000
    146      -2.0158      2.00000
    147      -1.9985      2.00000
    148      -1.9889      2.00000
    149      -1.9608      2.00000
    150      -1.9541      2.00000
    151      -1.9496      2.00000
    152      -1.9157      2.00000
    153      -1.9003      2.00000
    154      -1.8935      2.00000
    155      -1.8834      2.00000
    156      -1.8802      2.00000
    157      -1.8465      2.00000
    158      -1.8396      2.00000
    159      -1.8181      2.00000
    160      -1.8168      2.00000
    161      -1.8157      2.00000
    162      -1.8071      2.00000
    163      -1.8012      2.00000
    164      -1.7972      2.00000
    165      -1.7935      2.00000
    166      -1.7804      2.00000
    167      -1.7619      2.00000
    168      -1.7584      2.00000
    169      -1.7567      2.00000
    170      -1.7544      2.00000
    171      -1.7442      2.00000
    172      -1.7319      2.00000
    173      -1.7298      2.00000
    174      -1.7265      2.00000
    175      -1.7116      2.00000
    176      -1.6905      2.00000
    177      -1.6732      2.00000
    178      -1.6618      2.00000
    179      -1.6518      2.00000
    180      -1.6479      2.00000
    181      -1.6383      2.00000
    182      -1.6090      2.00000
    183      -1.5953      2.00000
    184      -1.5936      2.00000
    185      -1.5782      2.00000
    186      -1.5550      2.00000
    187      -1.5041      2.00000
    188      -1.4647      2.00000
    189      -1.4426      2.00000
    190      -1.3811      2.00000
    191      -1.3407      2.00000
    192      -1.2749      2.00000
    193      -1.2053      2.00000
    194      -0.8527      1.99998
    195      -0.7629      1.99971
    196      -0.6285      1.99560
    197      -0.4564      2.00705
    198      -0.0373      0.15052
    199       0.1490     -0.03673
    200       0.1627     -0.02551
    201       0.2379      0.00763
    202       0.3388      0.00615
    203       0.4807      0.00044
    204       0.6777      0.00000
    205       0.9147      0.00000
    206       1.1128      0.00000
    207       1.4896      0.00000
    208       1.6193      0.00000
    209       1.8997      0.00000
    210       1.9170      0.00000
    211       2.3787      0.00000
    212       2.4021      0.00000
    213       2.4981      0.00000
    214       2.5232      0.00000
    215       2.5770      0.00000
    216       2.6007      0.00000
    217       2.9279      0.00000
    218       3.0425      0.00000
    219       3.0435      0.00000
    220       3.1314      0.00000
    221       3.5789      0.00000
    222       3.5907      0.00000
    223       3.7502      0.00000
    224       3.9703      0.00000
    225       3.9963      0.00000
    226       4.0178      0.00000
    227       4.2339      0.00000
    228       4.3146      0.00000
    229       4.3671      0.00000
    230       4.3942      0.00000
    231       4.6575      0.00000
    232       4.8564      0.00000
    233       4.8788      0.00000
    234       5.0323      0.00000
    235       5.1728      0.00000
    236       5.3309      0.00000
    237       5.4023      0.00000
    238       5.4388      0.00000
    239       5.6104      0.00000
    240       5.8221      0.00000


--------------------------------------------------------------------------------------------------------


 soft charge-density along one line, spin component           1
         0         1         2         3         4         5         6         7         8         9
 total charge-density along one line
 
 pseudopotential strength for first ion, spin component:           1
 -8.173  -0.000   0.000  -0.000   0.000  -0.741   0.000  -0.000
 -0.000  -8.165  -0.000  -0.000   0.000   0.000  -0.749   0.000
  0.000  -0.000  -8.151  -0.000  -0.000  -0.000   0.000  -0.761
 -0.000  -0.000  -0.000  -8.165  -0.000   0.000   0.000   0.000
  0.000   0.000  -0.000  -0.000  -8.192  -0.000  -0.000   0.000
 -0.741   0.000  -0.000   0.000  -0.000   7.527  -0.000   0.000
  0.000  -0.749   0.000   0.000  -0.000  -0.000   7.534  -0.000
 -0.000   0.000  -0.761   0.000   0.000   0.000  -0.000   7.542
  0.000   0.000   0.000  -0.749   0.000  -0.000  -0.000  -0.000
 -0.000  -0.000   0.000   0.000  -0.727   0.000   0.000  -0.000
  0.000   0.000  -0.006   0.000   0.000  -0.000  -0.000   0.003
  0.000   0.000  -0.011   0.000   0.000  -0.000  -0.000   0.005
 -0.000  -0.014   0.000   0.000   0.000   0.000   0.011  -0.000
  0.000  -0.000  -0.016  -0.000   0.000  -0.000   0.000   0.011
 -0.000   0.000   0.000  -0.014  -0.000   0.000  -0.000  -0.000
 -0.000  -0.016   0.000   0.000   0.000  -0.000   0.013  -0.000
  0.000  -0.000  -0.017  -0.000   0.000  -0.000   0.000   0.012
 -0.000   0.000   0.000  -0.016  -0.000  -0.000  -0.000  -0.000
 total augmentation occupancy for first ion, spin component:           1
  1.924  -0.000   0.000  -0.000   0.000  -0.035   0.000  -0.000   0.000  -0.000  -0.000  -0.000   0.000   0.000   0.000  -0.000
 -0.000   1.924   0.000  -0.000  -0.000   0.000  -0.026  -0.000   0.000  -0.000   0.000   0.000   0.032   0.000   0.000  -0.018
  0.000   0.000   1.939  -0.000  -0.000  -0.000  -0.000  -0.037   0.000   0.000  -0.001   0.013   0.000   0.048  -0.000   0.000
 -0.000  -0.000  -0.000   1.924   0.000   0.000   0.000   0.000  -0.026   0.000   0.000   0.000   0.000   0.000   0.032  -0.000
  0.000  -0.000  -0.000   0.000   1.908  -0.000  -0.000   0.000   0.000  -0.008  -0.000  -0.000  -0.000   0.000   0.000   0.000
 -0.035   0.000  -0.000   0.000  -0.000   0.011  -0.000   0.000  -0.000   0.000   0.000   0.000  -0.000  -0.000  -0.000   0.000
  0.000  -0.026  -0.000   0.000  -0.000  -0.000   0.009  -0.000  -0.000   0.000   0.000  -0.000   0.022  -0.000  -0.000  -0.001
 -0.000  -0.000  -0.037   0.000   0.000   0.000  -0.000   0.011  -0.000  -0.000  -0.031   0.001  -0.000   0.017   0.000  -0.000
  0.000   0.000   0.000  -0.026   0.000  -0.000  -0.000  -0.000   0.009  -0.000   0.000   0.000  -0.000  -0.000   0.022   0.000
 -0.000  -0.000   0.000   0.000  -0.008   0.000   0.000  -0.000  -0.000   0.012   0.000   0.000   0.000   0.000   0.000  -0.000
 -0.000   0.000  -0.001   0.000  -0.000   0.000   0.000  -0.031   0.000   0.000   1.590  -0.117   0.000   0.165   0.000  -0.000
 -0.000   0.000   0.013   0.000  -0.000   0.000  -0.000   0.001   0.000   0.000  -0.117   0.014   0.000  -0.023   0.000   0.000
  0.000   0.032   0.000   0.000  -0.000  -0.000   0.022  -0.000  -0.000   0.000   0.000   0.000   0.177  -0.000  -0.000  -0.010
  0.000   0.000   0.048   0.000   0.000  -0.000  -0.000   0.017  -0.000   0.000   0.165  -0.023  -0.000   0.104  -0.000   0.000
  0.000   0.000  -0.000   0.032   0.000  -0.000  -0.000   0.000   0.022   0.000   0.000   0.000  -0.000  -0.000   0.177   0.000
 -0.000  -0.018   0.000  -0.000   0.000   0.000  -0.001  -0.000   0.000  -0.000  -0.000   0.000  -0.010   0.000   0.000   0.001
  0.000  -0.000  -0.021  -0.000  -0.000   0.000   0.000  -0.000   0.000   0.000  -0.023   0.002   0.000  -0.008   0.000   0.000
 -0.000  -0.000   0.000  -0.018  -0.000   0.000   0.000  -0.000  -0.001   0.000  -0.000   0.000   0.000  -0.000  -0.010  -0.000


------------------------ aborting loop because EDIFF is reached ----------------------------------------


    CHARGE:  cpu time    0.7455: real time    0.7516
    FORLOC:  cpu time    0.0157: real time    0.0157
    FORNL :  cpu time    3.0262: real time    3.0500
    STRESS:  cpu time    9.3926: real time    9.4659
    FORCOR:  cpu time    0.0980: real time    0.0987
    FORHAR:  cpu time    0.0339: real time    0.0341
    MIXING:  cpu time    0.0102: real time    0.0103
    OFIELD:  cpu time    0.0001: real time    0.0001

  FORCE on cell =-STRESS in cart. coord.  units (eV):
  Direction    XX          YY          ZZ          XY          YZ          ZX
  --------------------------------------------------------------------------------------
  Alpha Z   718.07260   718.07260   718.07260
  Ewald  189880.85828189876.92834************    -0.40328    -3.39754    -2.43625
  Hartree202917.04317202913.92539************    -0.21057    -1.81296    -1.41285
  E(xc)   -2312.63986 -2312.64332 -2319.77076    -0.00049    -0.00452    -0.00322
  Local  ************************405532.09905     0.59898     5.11268     3.78783
  n-local  -798.11904  -798.11720  -809.11986    -0.00603    -0.05233    -0.02469
  augment  3399.91950  3399.92280  3411.04473     0.00560     0.04690     0.02679
  Kinetic  3206.29667  3206.30701  3224.37985     0.00338     0.02736     0.02408
  Fock        0.00000     0.00000     0.00000     0.00000     0.00000     0.00000
  -------------------------------------------------------------------------------------
  Total      -3.80917    -3.78183    -3.83128    -0.01241    -0.08040    -0.03830
  in kB      -4.62373    -4.59054    -4.65056    -0.01507    -0.09760    -0.04650
  external pressure =       -4.62 kB  Pullay stress =        0.00 kB


 VOLUME and BASIS-vectors are now :
 -----------------------------------------------------------------------------
  energy-cutoff  :      544.00
  volume of cell :     1319.92
      direct lattice vectors                 reciprocal lattice vectors
     7.700375000  0.000000000  0.000000000     0.129863805  0.000000000  0.000000000
     0.000000000  7.700375000  0.000000000     0.000000000  0.129863805  0.000000000
     0.000000000  0.000000000 22.259998000     0.000000000  0.000000000  0.044923634

  length of vectors
     7.700375000  7.700375000 22.259998000     0.129863805  0.129863805  0.044923634


 FORCES acting on ions
    electron-ion (+dipol)            ewald-force                    non-local-force                 convergence-correction
 -----------------------------------------------------------------------------------------------
   0.165E+01 0.278E+01 0.327E+04   -.163E+01 -.275E+01 -.327E+04   -.225E-01 -.341E-01 -.420E+01   -.165E-05 0.661E-04 -.566E-01
   -.168E+01 0.331E+01 0.327E+04   0.166E+01 -.327E+01 -.327E+04   0.174E-01 -.335E-01 -.422E+01   0.161E-03 0.730E-04 -.563E-01
   0.321E-01 0.283E+01 0.327E+04   -.355E-01 -.280E+01 -.326E+04   0.291E-02 -.257E-01 -.424E+01   -.166E-03 0.358E-03 -.565E-01
   0.221E+01 0.252E-01 0.328E+04   -.220E+01 -.257E-01 -.327E+04   -.883E-02 0.516E-04 -.415E+01   -.819E-04 0.338E-03 -.566E-01
   -.175E+01 0.108E-01 0.328E+04   0.175E+01 -.117E-01 -.327E+04   0.137E-02 0.592E-03 -.410E+01   0.315E-03 0.346E-03 -.566E-01
   -.475E+00 0.380E-01 0.327E+04   0.465E+00 -.378E-01 -.327E+04   0.952E-02 -.355E-03 -.419E+01   -.231E-03 0.225E-03 -.564E-01
   0.163E+01 -.280E+01 0.327E+04   -.160E+01 0.277E+01 -.327E+04   -.210E-01 0.350E-01 -.419E+01   0.165E-03 -.385E-03 -.566E-01
   -.168E+01 -.332E+01 0.327E+04   0.166E+01 0.328E+01 -.327E+04   0.179E-01 0.342E-01 -.421E+01   0.721E-04 -.429E-03 -.563E-01
   0.485E-01 -.285E+01 0.327E+04   -.526E-01 0.283E+01 -.326E+04   0.363E-02 0.243E-01 -.424E+01   -.233E-03 -.576E-03 -.563E-01
   0.979E+01 -.654E+00 0.109E+04   -.977E+01 0.647E+00 -.109E+04   -.555E-01 0.140E-01 -.155E+00   -.180E-03 -.310E-03 -.108E+00
   -.259E+01 -.241E+00 0.110E+04   0.257E+01 0.238E+00 -.110E+04   0.330E-01 0.507E-02 -.234E+00   0.395E-03 -.313E-03 -.108E+00
   -.754E+01 -.380E+00 0.109E+04   0.754E+01 0.375E+00 -.109E+04   0.343E-01 0.977E-02 -.124E+00   -.209E-03 -.290E-03 -.107E+00
   0.842E+01 0.117E+02 0.110E+04   -.842E+01 -.117E+02 -.110E+04   -.412E-01 -.215E-01 -.390E+00   -.335E-03 0.433E-03 -.108E+00
   0.246E+01 0.183E+02 0.111E+04   -.247E+01 -.183E+02 -.111E+04   -.881E-02 -.959E-01 -.598E+00   0.239E-03 0.748E-04 -.108E+00
   -.106E+02 0.160E+02 0.111E+04   0.106E+02 -.160E+02 -.110E+04   0.429E-01 -.534E-01 -.491E+00   0.985E-04 0.218E-03 -.108E+00
   0.844E+01 -.116E+02 0.110E+04   -.843E+01 0.117E+02 -.110E+04   -.457E-01 0.287E-01 -.387E+00   -.339E-03 -.134E-03 -.108E+00
   0.251E+01 -.181E+02 0.111E+04   -.252E+01 0.181E+02 -.111E+04   -.131E-01 0.931E-01 -.599E+00   0.197E-03 0.231E-03 -.108E+00
   -.103E+02 -.161E+02 0.111E+04   0.103E+02 0.161E+02 -.110E+04   0.393E-01 0.616E-01 -.479E+00   0.128E-03 0.751E-04 -.108E+00
   0.210E+01 -.261E+01 -.112E+04   -.212E+01 0.259E+01 0.111E+04   0.257E-01 0.620E-01 0.421E+00   0.132E-03 0.798E-04 -.106E+00
   -.640E+01 0.121E+01 -.112E+04   0.641E+01 -.124E+01 0.112E+04   0.154E-01 0.779E-02 0.423E+00   0.271E-03 0.235E-04 -.105E+00
   0.399E+01 0.746E+01 -.114E+04   -.399E+01 -.742E+01 0.114E+04   -.327E-01 -.138E+00 0.141E+00   -.400E-03 0.359E-04 -.105E+00
   0.452E+01 -.521E+00 -.108E+04   -.451E+01 0.523E+00 0.108E+04   -.653E-01 0.373E-02 0.122E+01   -.421E-04 0.223E-03 -.106E+00
   -.810E+01 -.265E+00 -.107E+04   0.807E+01 0.270E+00 0.106E+04   0.108E+00 -.104E-02 0.163E+01   0.311E-03 0.158E-03 -.106E+00
   0.183E+01 0.598E+00 -.111E+04   -.180E+01 -.596E+00 0.111E+04   -.277E-02 -.439E-02 0.794E+00   -.304E-03 0.221E-03 -.106E+00
   0.204E+01 0.322E+01 -.111E+04   -.207E+01 -.319E+01 0.111E+04   0.228E-01 -.728E-01 0.439E+00   0.764E-04 -.287E-03 -.106E+00
   -.609E+01 -.996E+00 -.112E+04   0.610E+01 0.102E+01 0.112E+04   0.164E-01 -.103E-01 0.416E+00   0.295E-03 -.186E-03 -.106E+00
   0.391E+01 -.783E+01 -.114E+04   -.390E+01 0.778E+01 0.114E+04   -.399E-01 0.129E+00 0.139E+00   -.376E-03 -.230E-03 -.105E+00
   0.276E+01 0.156E+01 -.325E+04   -.275E+01 -.154E+01 0.324E+04   -.244E-01 -.285E-01 0.384E+01   -.266E-03 -.896E-04 -.564E-01
   0.216E+01 0.104E+01 -.324E+04   -.214E+01 -.103E+01 0.323E+04   -.169E-01 -.684E-02 0.368E+01   0.861E-04 -.851E-04 -.571E-01
   -.452E+01 0.719E+00 -.324E+04   0.448E+01 -.715E+00 0.324E+04   0.397E-01 -.773E-02 0.376E+01   0.181E-03 -.607E-04 -.567E-01
   0.118E+01 0.304E+01 -.326E+04   -.114E+01 -.294E+01 0.326E+04   -.485E-01 -.108E+00 0.354E+01   -.247E-03 -.336E-03 -.558E-01
   0.600E+01 0.102E+01 -.328E+04   -.590E+01 -.916E+00 0.327E+04   -.134E+00 -.915E-01 0.330E+01   0.178E-03 -.772E-04 -.549E-01
   -.650E+01 0.198E+01 -.328E+04   0.637E+01 -.191E+01 0.328E+04   0.170E+00 -.661E-01 0.347E+01   0.863E-04 -.192E-03 -.546E-01
   -.654E+00 -.431E+01 -.326E+04   0.673E+00 0.419E+01 0.325E+04   -.152E-01 0.138E+00 0.353E+01   -.247E-03 0.422E-03 -.561E-01
   0.556E+01 -.190E+01 -.328E+04   -.547E+01 0.181E+01 0.328E+04   -.122E+00 0.816E-01 0.332E+01   0.198E-03 0.164E-03 -.549E-01
   -.436E+01 -.232E+01 -.328E+04   0.428E+01 0.224E+01 0.327E+04   0.107E+00 0.717E-01 0.346E+01   0.464E-04 0.233E-03 -.550E-01
 -----------------------------------------------------------------------------------------------
   0.171E-01 0.553E-02 0.663E+01   -.213E-13 -.358E-12 0.455E-11   -.114E-01 0.783E-03 -.368E+01   -.275E-04 0.196E-04 -.293E+01
 
 
 POSITION                                       TOTAL-FORCE (eV/Angst)
 -----------------------------------------------------------------------------------
      1.28340      1.28340      0.00000         0.000833      0.000869      0.011493
      3.85020      1.28340      0.00000        -0.000344     -0.000360      0.010568
      6.41699      1.28340      0.00000        -0.000781      0.000573      0.015993
      1.28340      3.85020      0.00000        -0.001642     -0.000265     -0.000491
      3.85020      3.85020      0.00000         0.001169     -0.000196     -0.007575
      6.41699      3.85020      0.00000        -0.000095     -0.000097      0.004380
      1.28340      6.41699      0.00000         0.000588     -0.001089      0.011080
      3.85020      6.41699      0.00000        -0.000157      0.000039      0.010736
      6.41699      6.41699      0.00000        -0.000939     -0.000541      0.016521
      0.00000      0.00000      1.81500        -0.036616      0.006483      0.090571
      2.56680      0.00000      1.81500         0.013924      0.001660      0.046767
      5.13360      0.00000      1.81500         0.030065      0.004343      0.108380
      0.00000      2.56680      1.81500        -0.037278     -0.045571     -0.006336
      2.56680      2.56680      1.81500        -0.019291     -0.098922     -0.102859
      5.13360      2.56680      1.81500         0.049815     -0.069944     -0.033832
      0.00000      5.13360      1.81500        -0.039498      0.051640     -0.007404
      2.56680      5.13360      1.81500        -0.021728      0.096987     -0.102715
      5.13360      5.13360      1.81500         0.045289      0.075961     -0.033089
      1.28975      1.29021      3.70252         0.004380      0.033464      0.058511
      3.85197      1.29787      3.70839         0.022449     -0.014803      0.048902
      6.42079      1.31262      3.73355        -0.027098     -0.090445     -0.078709
      1.29175      3.85003      3.64159        -0.055259      0.005148      0.445048
      3.83593      3.84940      3.61478         0.081672      0.003556      0.616934
      6.40443      3.85485      3.68585         0.019178     -0.002816      0.234692
      1.28586      6.41206      3.70075         0.002058     -0.036260      0.069972
      3.84707      6.40234      3.70801         0.028344      0.016510      0.049874
      6.41759      6.40105      3.73111        -0.030037      0.080055     -0.078484
      0.01020      0.00861      5.51468        -0.011620     -0.013325      0.025643
      2.57158      7.69627      5.51101         0.001988      0.000518      0.037713
      5.13285      0.00689      5.51822         0.000022     -0.004128      0.017613
      0.01886      2.58861      5.55782        -0.015538     -0.008202     -0.159237
      2.58306      2.57366      5.59929        -0.038868      0.011526     -0.306402
      5.12447      2.58637      5.60244         0.039974      0.005190     -0.288162
      0.00347      5.12458      5.55327         0.003650      0.012817     -0.150714
      2.56947      5.11725      5.60011        -0.030477     -0.009910     -0.315933
      5.11641      5.12834      5.59375         0.021868     -0.010464     -0.259451
 -----------------------------------------------------------------------------------
    total drift:                                0.005704      0.006329      0.015271


--------------------------------------------------------------------------------------------------------



  FREE ENERGIE OF THE ION-ELECTRON SYSTEM (eV)
  ---------------------------------------------------
  free  energy   TOTEN  =      -108.30369552 eV

  energy  without entropy=     -108.29492906  energy(sigma->0) =     -108.30150390
 


--------------------------------------------------------------------------------------------------------


    POTLOK:  cpu time    0.1026: real time    0.1034


--------------------------------------------------------------------------------------------------------


 stress matrix after NEB project (eV)
     -3.80917     -0.01241     -0.03830
     -0.01241     -3.78183     -0.08040
     -0.03830     -0.08040     -3.83128
  FORCES: max atom, RMS     0.622327    0.174016
  FORCE total and by dimension    1.044099    0.616934
  Stress total and by dimension    6.595977    3.831280
     LOOP+:  cpu time  546.0032: real time  550.7404
 vacuum level on the upper side and lower side of the slab         0.584         6.994
    4ORBIT:  cpu time    0.0000: real time    0.0000

 total amount of memory used by VASP MPI-rank0   144874. kBytes
=======================================================================

   base      :      30000. kBytes
   nonlr-proj:      14881. kBytes
   fftplans  :       6175. kBytes
   grid      :      18948. kBytes
   one-center:        559. kBytes
   wavefun   :      74311. kBytes
 
  
  
 General timing and accounting informations for this job:
 ========================================================
  
                  Total CPU time used (sec):      554.766
                            User time (sec):      552.970
                          System time (sec):        1.796
                         Elapsed time (sec):      560.323
  
                   Maximum memory used (kb):      427964.
                   Average memory used (kb):           0.
  
                          Minor page faults:       304004
                          Major page faults:         1995
                 Voluntary context switches:         4134
