<?xml version="1.0" encoding="ISO-8859-1"?>
<modeling>
 <generator>
  <i name="program" type="string">vasp </i>
  <i name="version" type="string">5.4.4.18Apr17-6-g9f103f2a35  </i>
  <i name="subversion" type="string">(build Mar 06 2021 22:04:06) complex            parallel </i>
  <i name="platform" type="string">LinuxIFC </i>
  <i name="date" type="string">2024 03 06 </i>
  <i name="time" type="string">14:29:20 </i>
 </generator>
 <incar>
  <i type="string" name="PREC">normal</i>
  <i type="string" name="ALGO"> Very_Fast</i>
  <i type="int" name="ISPIN">     1</i>
  <i type="int" name="NELM">   400</i>
  <i type="int" name="IBRION">    -1</i>
  <i name="EDIFF">      0.00001000</i>
  <i name="EDIFFG">     -0.05000000</i>
  <i type="int" name="NSW">     0</i>
  <i type="int" name="ISIF">     2</i>
  <i type="int" name="ISYM">     0</i>
  <i name="SYMPREC">      0.00000000</i>
  <i name="ENCUT">    544.00000000</i>
  <i name="POTIM">      0.50000000</i>
  <i type="string" name="LREAL"> AUTO</i>
  <i type="int" name="ISMEAR">     2</i>
  <i name="SIGMA">      0.20000000</i>
  <i type="logical" name="LWAVE"> F  </i>
  <i type="logical" name="LCHARG"> F  </i>
  <i type="logical" name="LVTOT"> F  </i>
  <i type="logical" name="LVHAR"> T  </i>
  <v type="int" name="KPOINT_BSE">    -1     0     0     0</v>
  <i type="int" name="NELM">   400</i>
  <i type="string" name="GGA"> RP</i>
  <i type="int" name="VOSKOWN">     1</i>
  <i type="logical" name="LDIPOL"> T  </i>
  <i type="int" name="IDIPOL">     3</i>
  <i name="DIP%EFIELD">      0.50000000</i>
 </incar>
 <structure name="primitive_cell" >
  <crystal>
   <varray name="basis" >
    <v>       7.70037500       0.00000000       0.00000000 </v>
    <v>       0.00000000       7.70037500       0.00000000 </v>
    <v>       0.00000000       0.00000000      22.25999800 </v>
   </varray>
   <i name="volume">   1319.92383604 </i>
   <varray name="rec_basis" >
    <v>       0.12986381       0.00000000       0.00000000 </v>
    <v>       0.00000000       0.12986381       0.00000000 </v>
    <v>       0.00000000       0.00000000       0.04492363 </v>
   </varray>
  </crystal>
  <varray name="positions" >
   <v>       0.16666708       0.16666708       0.00000000 </v>
   <v>      -0.16666474       0.16666708       0.00000000 </v>
   <v>       0.16666708      -0.16666474       0.00000000 </v>
   <v>      -0.49999890       0.16666708       0.00000000 </v>
   <v>       0.16666708      -0.49999890       0.00000000 </v>
   <v>       0.00000000       0.00000000       0.08153640 </v>
   <v>       0.33333416       0.00000000       0.08153640 </v>
   <v>       0.00000000       0.33333416       0.08153640 </v>
   <v>       0.33333416       0.33333416       0.08153640 </v>
   <v>      -0.16666474      -0.16666474       0.00000000 </v>
   <v>      -0.49999890      -0.16666474       0.00000000 </v>
   <v>      -0.16666474      -0.49999890       0.00000000 </v>
   <v>      -0.49999890      -0.49999890       0.00000000 </v>
   <v>       0.16749132       0.16755171       0.16633056 </v>
   <v>      -0.33333182       0.00000000       0.08153640 </v>
   <v>       0.00000000      -0.33333182       0.08153640 </v>
   <v>      -0.33333182       0.33333416       0.08153640 </v>
   <v>       0.33333416      -0.33333182       0.08153640 </v>
   <v>       0.16775183       0.49998007       0.16359364 </v>
   <v>       0.16698693      -0.16730575       0.16625136 </v>
   <v>      -0.49976865       0.16854569       0.16659426 </v>
   <v>      -0.16617178       0.17046235       0.16772441 </v>
   <v>       0.49814808       0.49989721       0.16238928 </v>
   <v>      -0.16829583      -0.49939412       0.16558160 </v>
   <v>       0.49959450      -0.16856841       0.16657733 </v>
   <v>      -0.16658682      -0.16873568       0.16761520 </v>
   <v>      -0.33333182      -0.33333182       0.08153640 </v>
   <v>       0.00132513       0.00111748       0.24773960 </v>
   <v>       0.33395555      -0.00053335       0.24757473 </v>
   <v>       0.00244988       0.33616610       0.24967743 </v>
   <v>       0.33544626       0.33422567       0.25154063 </v>
   <v>      -0.33342857       0.00089502       0.24789836 </v>
   <v>       0.00045024      -0.33450267       0.24947307 </v>
   <v>       0.33368154      -0.33545509       0.25157729 </v>
   <v>      -0.33451657       0.33587572       0.25168187 </v>
   <v>      -0.33556392      -0.33401464       0.25129167 </v>
  </varray>
 </structure>
 <varray name="primitive_index" >
  <v type="int" >        1 </v>
  <v type="int" >        3 </v>
  <v type="int" >        7 </v>
  <v type="int" >        2 </v>
  <v type="int" >        4 </v>
  <v type="int" >       10 </v>
  <v type="int" >       11 </v>
  <v type="int" >       13 </v>
  <v type="int" >       14 </v>
  <v type="int" >        9 </v>
  <v type="int" >        8 </v>
  <v type="int" >        6 </v>
  <v type="int" >        5 </v>
  <v type="int" >       19 </v>
  <v type="int" >       12 </v>
  <v type="int" >       16 </v>
  <v type="int" >       15 </v>
  <v type="int" >       17 </v>
  <v type="int" >       22 </v>
  <v type="int" >       25 </v>
  <v type="int" >       20 </v>
  <v type="int" >       21 </v>
  <v type="int" >       23 </v>
  <v type="int" >       24 </v>
  <v type="int" >       26 </v>
  <v type="int" >       27 </v>
  <v type="int" >       18 </v>
  <v type="int" >       28 </v>
  <v type="int" >       29 </v>
  <v type="int" >       31 </v>
  <v type="int" >       32 </v>
  <v type="int" >       30 </v>
  <v type="int" >       34 </v>
  <v type="int" >       35 </v>
  <v type="int" >       33 </v>
  <v type="int" >       36 </v>
 </varray>
 <kpoints>
  <generation param="Monkhorst-Pack">
   <v type="int" name="divisions">       4        4        1 </v>
   <v name="usershift">      0.00000000       0.00000000       0.00000000 </v>
   <v name="genvec1">      0.25000000       0.00000000       0.00000000 </v>
   <v name="genvec2">      0.00000000       0.25000000       0.00000000 </v>
   <v name="genvec3">      0.00000000       0.00000000       1.00000000 </v>
   <v name="shift">      0.50000000       0.50000000       0.00000000 </v>
  </generation>
  <varray name="kpointlist" >
   <v>       0.12500000       0.12500000       0.00000000 </v>
   <v>       0.37500000       0.12500000       0.00000000 </v>
   <v>      -0.37500000       0.12500000       0.00000000 </v>
   <v>      -0.12500000       0.12500000       0.00000000 </v>
   <v>       0.12500000       0.37500000       0.00000000 </v>
   <v>       0.37500000       0.37500000       0.00000000 </v>
   <v>      -0.37500000       0.37500000       0.00000000 </v>
   <v>      -0.12500000       0.37500000       0.00000000 </v>
  </varray>
  <varray name="weights" >
   <v>       0.12500000 </v>
   <v>       0.12500000 </v>
   <v>       0.12500000 </v>
   <v>       0.12500000 </v>
   <v>       0.12500000 </v>
   <v>       0.12500000 </v>
   <v>       0.12500000 </v>
   <v>       0.12500000 </v>
  </varray>
 </kpoints>
 <parameters>
  <separator name="general" >
   <i type="string" name="SYSTEM">unknown system</i>
   <i type="logical" name="LCOMPAT"> F  </i>
  </separator>
  <separator name="electronic" >
   <i type="string" name="PREC">normal</i>
   <i name="ENMAX">    544.00000000</i>
   <i name="ENAUG">    586.98000000</i>
   <i name="EDIFF">      0.00001000</i>
   <i type="int" name="IALGO">    48</i>
   <i type="int" name="IWAVPR">    10</i>
   <i type="int" name="NBANDS">   240</i>
   <i name="NELECT">    396.00000000</i>
   <i type="int" name="TURBO">     0</i>
   <i type="int" name="IRESTART">     0</i>
   <i type="int" name="NREBOOT">     0</i>
   <i type="int" name="NMIN">     0</i>
   <i name="EREF">      0.00000000</i>
   <separator name="electronic smearing" >
    <i type="int" name="ISMEAR">     2</i>
    <i name="SIGMA">      0.20000000</i>
    <i name="KSPACING">      0.50000000</i>
    <i type="logical" name="KGAMMA"> T  </i>
   </separator>
   <separator name="electronic projectors" >
    <i type="logical" name="LREAL"> T  </i>
    <v name="ROPT">     -0.00050000</v>
    <i type="int" name="LMAXPAW">  -100</i>
    <i type="int" name="LMAXMIX">     2</i>
    <i type="logical" name="NLSPLINE"> F  </i>
   </separator>
   <separator name="electronic startup" >
    <i type="int" name="ISTART">     0</i>
    <i type="int" name="ICHARG">     2</i>
    <i type="int" name="INIWAV">     1</i>
   </separator>
   <separator name="electronic spin" >
    <i type="int" name="ISPIN">     1</i>
    <i type="logical" name="LNONCOLLINEAR"> F  </i>
    <v name="MAGMOM">      1.00000000      1.00000000      1.00000000      1.00000000      1.00000000      1.00000000      1.00000000      1.00000000      1.00000000      1.00000000      1.00000000      1.00000000      1.00000000      1.00000000      1.00000000      1.00000000      1.00000000      1.00000000      1.00000000      1.00000000
      1.00000000      1.00000000      1.00000000      1.00000000      1.00000000      1.00000000      1.00000000      1.00000000      1.00000000      1.00000000      1.00000000      1.00000000      1.00000000      1.00000000      1.00000000      1.00000000</v>
    <i name="NUPDOWN">     -1.00000000</i>
    <i type="logical" name="LSORBIT"> F  </i>
    <v name="SAXIS">      0.00000000      0.00000000      1.00000000</v>
    <i type="logical" name="LSPIRAL"> F  </i>
    <v name="QSPIRAL">      0.00000000      0.00000000      0.00000000</v>
    <i type="logical" name="LZEROZ"> F  </i>
   </separator>
   <separator name="electronic exchange-correlation" >
    <i type="logical" name="LASPH"> F  </i>
    <i type="logical" name="LMETAGGA"> F  </i>
   </separator>
   <separator name="electronic convergence" >
    <i type="int" name="NELM">   400</i>
    <i type="int" name="NELMDL">   -12</i>
    <i type="int" name="NELMIN">     2</i>
    <i name="ENINI">    544.00000000</i>
    <separator name="electronic convergence detail" >
     <i type="logical" name="LDIAG"> T  </i>
     <i type="logical" name="LSUBROT"> F  </i>
     <i name="WEIMIN">      0.00000000</i>
     <i name="EBREAK">      0.00000001</i>
     <i name="DEPER">      0.30000000</i>
     <i type="int" name="NRMM">     4</i>
     <i name="TIME">      0.40000000</i>
    </separator>
   </separator>
   <separator name="electronic mixer" >
    <i name="AMIX">      0.40000000</i>
    <i name="BMIX">      1.00000000</i>
    <i name="AMIN">      0.10000000</i>
    <i name="AMIX_MAG">      1.60000000</i>
    <i name="BMIX_MAG">      1.00000000</i>
    <separator name="electronic mixer details" >
     <i type="int" name="IMIX">     4</i>
     <i type="logical" name="MIXFIRST"> F  </i>
     <i type="int" name="MAXMIX">   -45</i>
     <i name="WC">    100.00000000</i>
     <i type="int" name="INIMIX">     1</i>
     <i type="int" name="MIXPRE">     1</i>
     <i type="int" name="MREMOVE">     5</i>
    </separator>
   </separator>
   <separator name="electronic dipolcorrection" >
    <i type="logical" name="LDIPOL"> T  </i>
    <i type="logical" name="LMONO"> F  </i>
    <i type="int" name="IDIPOL">     3</i>
    <i name="EPSILON">      1.00000000</i>
    <v name="DIPOL">   -100.00000000   -100.00000000   -100.00000000</v>
    <i name="EFIELD">      0.50000000</i>
   </separator>
  </separator>
  <separator name="grids" >
   <i type="int" name="NGX">    48</i>
   <i type="int" name="NGY">    48</i>
   <i type="int" name="NGZ">   128</i>
   <i type="int" name="NGXF">    96</i>
   <i type="int" name="NGYF">    96</i>
   <i type="int" name="NGZF">   256</i>
   <i type="logical" name="ADDGRID"> F  </i>
  </separator>
  <separator name="ionic" >
   <i type="int" name="NSW">     0</i>
   <i type="int" name="IBRION">    -1</i>
   <i type="int" name="MDALGO">     0</i>
   <i type="int" name="ISIF">     2</i>
   <i name="PSTRESS">      0.00000000</i>
   <i name="EDIFFG">     -0.05000000</i>
   <i type="int" name="NFREE">     0</i>
   <i name="POTIM">      0.50000000</i>
   <i name="SMASS">     -3.00000000</i>
   <i name="SCALEE">      1.00000000</i>
  </separator>
  <separator name="ionic md" >
   <i name="TEBEG">      0.00010000</i>
   <i name="TEEND">      0.00010000</i>
   <i type="int" name="NBLOCK">     1</i>
   <i type="int" name="KBLOCK">     1</i>
   <i type="int" name="NPACO">   256</i>
   <i name="APACO">     16.00000000</i>
  </separator>
  <separator name="symmetry" >
   <i type="int" name="ISYM">     0</i>
   <i name="SYMPREC">      0.00000000</i>
  </separator>
  <separator name="dos" >
   <i type="int" name="LORBIT">     0</i>
   <v name="RWIGS">     -1.00000000</v>
   <i type="int" name="NEDOS">   301</i>
   <i name="EMIN">     10.00000000</i>
   <i name="EMAX">    -10.00000000</i>
   <i name="EFERMI">      0.00000000</i>
  </separator>
  <separator name="writing" >
   <i type="int" name="NWRITE">     2</i>
   <i type="logical" name="LWAVE"> F  </i>
   <i type="logical" name="LDOWNSAMPLE"> F  </i>
   <i type="logical" name="LCHARG"> F  </i>
   <i type="logical" name="LPARD"> F  </i>
   <i type="logical" name="LVTOT"> F  </i>
   <i type="logical" name="LVHAR"> T  </i>
   <i type="logical" name="LELF"> F  </i>
   <i type="logical" name="LOPTICS"> F  </i>
   <v name="STM">      0.00000000      0.00000000      0.00000000      0.00000000      0.00000000      0.00000000      0.00000000</v>
  </separator>
  <separator name="performance" >
   <i type="int" name="NPAR">    16</i>
   <i type="int" name="NSIM">     4</i>
   <i type="int" name="NBLK">    -1</i>
   <i type="logical" name="LPLANE"> T  </i>
   <i type="logical" name="LSCALAPACK"> T  </i>
   <i type="logical" name="LSCAAWARE"> F  </i>
   <i type="logical" name="LSCALU"> F  </i>
   <i type="logical" name="LASYNC"> F  </i>
   <i type="logical" name="LORBITALREAL"> F  </i>
  </separator>
  <separator name="miscellaneous" >
   <i type="int" name="IDIOT">     3</i>
   <i type="int" name="ISPECIAL">     0</i>
   <i type="logical" name="LMUSIC"> F  </i>
   <v name="POMASS">     63.54600000</v>
   <v name="DARWINR">      0.00000000</v>
   <v name="DARWINV">      1.00000000</v>
   <i type="logical" name="LCORR"> T  </i>
  </separator>
  <i type="logical" name="GGA_COMPAT"> T  </i>
  <i type="logical" name="LBERRY"> F  </i>
  <i type="int" name="ICORELEVEL">     0</i>
  <i type="logical" name="LDAU"> F  </i>
  <i type="int" name="I_CONSTRAINED_M">     0</i>
  <separator name="electronic exchange-correlation" >
   <i type="string" name="GGA">RP</i>
   <i type="int" name="VOSKOWN">     1</i>
   <i type="logical" name="LHFCALC"> F  </i>
   <i type="string" name="PRECFOCK"></i>
   <i type="logical" name="LSYMGRAD"> F  </i>
   <i type="logical" name="LHFONE"> F  </i>
   <i type="logical" name="LRHFCALC"> F  </i>
   <i type="logical" name="LTHOMAS"> F  </i>
   <i type="logical" name="LMODELHF"> F  </i>
   <i name="ENCUT4O">     -1.00000000</i>
   <i type="int" name="EXXOEP">     0</i>
   <i type="int" name="FOURORBIT">     0</i>
   <i name="AEXX">      0.00000000</i>
   <i name="HFALPHA">      0.00000000</i>
   <i name="MCALPHA">      0.00000000</i>
   <i name="ALDAX">      1.00000000</i>
   <i name="AGGAX">      1.00000000</i>
   <i name="ALDAC">      1.00000000</i>
   <i name="AGGAC">      1.00000000</i>
   <i type="int" name="NKREDX">     1</i>
   <i type="int" name="NKREDY">     1</i>
   <i type="int" name="NKREDZ">     1</i>
   <i type="logical" name="SHIFTRED"> F  </i>
   <i type="logical" name="ODDONLY"> F  </i>
   <i type="logical" name="EVENONLY"> F  </i>
   <i type="int" name="LMAXFOCK">     0</i>
   <i type="int" name="NMAXFOCKAE">     0</i>
   <i type="logical" name="LFOCKAEDFT"> F  </i>
   <i name="HFSCREEN">      0.00000000</i>
   <i name="HFSCREENC">      0.00000000</i>
   <i type="int" name="NBANDSGWLOW">     0</i>
  </separator>
  <separator name="vdW DFT" >
   <i type="logical" name="LUSE_VDW"> F  </i>
   <i name="Zab_VDW">     -0.84910000</i>
   <i name="PARAM1">      0.12340000</i>
   <i name="PARAM2">      1.00000000</i>
   <i name="PARAM3">      0.00000000</i>
  </separator>
  <separator name="model GW" >
   <i type="int" name="MODEL_GW">     0</i>
   <i name="MODEL_EPS0">     21.99873060</i>
   <i name="MODEL_ALPHA">      1.00000000</i>
  </separator>
  <separator name="linear response parameters" >
   <i type="logical" name="LEPSILON"> F  </i>
   <i type="logical" name="LRPA"> F  </i>
   <i type="logical" name="LNABLA"> F  </i>
   <i type="logical" name="LVEL"> F  </i>
   <i type="int" name="KINTER">     0</i>
   <i name="CSHIFT">      0.10000000</i>
   <i name="OMEGAMAX">     -1.00000000</i>
   <i name="DEG_THRESHOLD">      0.00200000</i>
   <i name="RTIME">     -0.10000000</i>
   <i name="WPLASMAI">      0.00000000</i>
   <v name="DFIELD">      0.00000000      0.00000000      0.00000000</v>
   <v name="WPLASMA">      0.00000000      0.00000000      0.00000000      0.00000000      0.00000000      0.00000000      0.00000000      0.00000000      0.00000000</v>
  </separator>
  <separator name="orbital magnetization" >
   <i type="logical" name="NUCIND"> F  </i>
   <v name="MAGPOS">      0.00000000      0.00000000      0.00000000</v>
   <i type="logical" name="LNICSALL"> T  </i>
   <i type="logical" name="ORBITALMAG"> F  </i>
   <i type="logical" name="LMAGBLOCH"> F  </i>
   <i type="logical" name="LCHIMAG"> F  </i>
   <i type="logical" name="LGAUGE"> T  </i>
   <i type="int" name="MAGATOM">     0</i>
   <v name="MAGDIPOL">      0.00000000      0.00000000      0.00000000</v>
   <v name="AVECCONST">      0.00000000      0.00000000      0.00000000</v>
  </separator>
  <separator name="response functions" >
   <i type="logical" name="LADDER"> F  </i>
   <i type="logical" name="LRPAFORCE"> F  </i>
   <i type="logical" name="LFXC"> F  </i>
   <i type="logical" name="LHARTREE"> T  </i>
   <i type="int" name="IBSE">     0</i>
   <v type="int" name="KPOINT">    -1     0     0     0</v>
   <i type="logical" name="LTCTE"> F  </i>
   <i type="logical" name="LTETE"> F  </i>
   <i type="logical" name="LTRIPLET"> F  </i>
   <i type="logical" name="LFXCEPS"> F  </i>
   <i type="logical" name="LFXHEG"> F  </i>
   <i type="int" name="NATURALO">     2</i>
   <i type="logical" name="L2ORDER"> F  </i>
   <i type="logical" name="LMP2LT"> F  </i>
   <i type="logical" name="LUSEW"> F  </i>
   <i name="ENCUTGW">     -2.00000000</i>
   <i name="ENCUTGWSOFT">     -2.00000000</i>
   <i name="ENCUTLF">     -1.00000000</i>
   <i type="int" name="LMAXMP2">    -1</i>
   <i name="SCISSOR">      0.00000000</i>
   <i type="int" name="NOMEGA">     0</i>
   <i type="int" name="NOMEGAR">     0</i>
   <i type="int" name="NBANDSGW">    -1</i>
   <i type="int" name="NBANDSO">    -1</i>
   <i type="int" name="NBANDSV">    -1</i>
   <i type="int" name="NELM">   400</i>
   <i type="int" name="NELMHF">     1</i>
   <i type="int" name="DIM">     3</i>
   <i type="int" name="ANTIRES">     0</i>
   <i name="OMEGAMAX">    -30.00000000</i>
   <i name="OMEGAMIN">    -30.00000000</i>
   <i name="OMEGATL">   -200.00000000</i>
   <i type="int" name="OMEGAGRID">   140</i>
   <i name="CSHIFT">     -0.10000000</i>
   <i type="logical" name="SELFENERGY"> F  </i>
   <i type="logical" name="LSPECTRAL"> F  </i>
   <i type="logical" name="LSPECTRALGW"> F  </i>
   <i type="logical" name="LSINGLES"> F  </i>
   <i type="logical" name="LFERMIGW"> F  </i>
   <i type="logical" name="ODDONLYGW"> F  </i>
   <i type="logical" name="EVENONLYGW"> F  </i>
   <i type="int" name="NKREDLFX">     1</i>
   <i type="int" name="NKREDLFY">     1</i>
   <i type="int" name="NKREDLFZ">     1</i>
   <i type="int" name="MAXMEM">  2800</i>
   <i type="int" name="TELESCOPE">     0</i>
   <i type="int" name="TAUPAR">     1</i>
   <i type="int" name="OMEGAPAR">    -1</i>
   <i name="LAMBDA">      1.00000000</i>
  </separator>
  <separator name="External order field" >
   <i name="OFIELD_KAPPA">      0.00000000</i>
   <v name="OFIELD_K">      0.00000000      0.00000000      0.00000000</v>
   <i name="OFIELD_Q6_NEAR">      0.00000000</i>
   <i name="OFIELD_Q6_FAR">      0.00000000</i>
   <i name="OFIELD_A">      0.00000000</i>
  </separator>
  <separator name="solvation model" >
   <i type="logical" name="LSOL"> F  </i>
  </separator>
 </parameters>
 <atominfo>
  <atoms>      36 </atoms>
  <types>       1 </types>
  <array name="atoms" >
   <dimension dim="1">ion</dimension>
   <field type="string">element</field>
   <field type="int">atomtype</field>
   <set>
    <rc><c>Cu</c><c>   1</c></rc>
    <rc><c>Cu</c><c>   1</c></rc>
    <rc><c>Cu</c><c>   1</c></rc>
    <rc><c>Cu</c><c>   1</c></rc>
    <rc><c>Cu</c><c>   1</c></rc>
    <rc><c>Cu</c><c>   1</c></rc>
    <rc><c>Cu</c><c>   1</c></rc>
    <rc><c>Cu</c><c>   1</c></rc>
    <rc><c>Cu</c><c>   1</c></rc>
    <rc><c>Cu</c><c>   1</c></rc>
    <rc><c>Cu</c><c>   1</c></rc>
    <rc><c>Cu</c><c>   1</c></rc>
    <rc><c>Cu</c><c>   1</c></rc>
    <rc><c>Cu</c><c>   1</c></rc>
    <rc><c>Cu</c><c>   1</c></rc>
    <rc><c>Cu</c><c>   1</c></rc>
    <rc><c>Cu</c><c>   1</c></rc>
    <rc><c>Cu</c><c>   1</c></rc>
    <rc><c>Cu</c><c>   1</c></rc>
    <rc><c>Cu</c><c>   1</c></rc>
    <rc><c>Cu</c><c>   1</c></rc>
    <rc><c>Cu</c><c>   1</c></rc>
    <rc><c>Cu</c><c>   1</c></rc>
    <rc><c>Cu</c><c>   1</c></rc>
    <rc><c>Cu</c><c>   1</c></rc>
    <rc><c>Cu</c><c>   1</c></rc>
    <rc><c>Cu</c><c>   1</c></rc>
    <rc><c>Cu</c><c>   1</c></rc>
    <rc><c>Cu</c><c>   1</c></rc>
    <rc><c>Cu</c><c>   1</c></rc>
    <rc><c>Cu</c><c>   1</c></rc>
    <rc><c>Cu</c><c>   1</c></rc>
    <rc><c>Cu</c><c>   1</c></rc>
    <rc><c>Cu</c><c>   1</c></rc>
    <rc><c>Cu</c><c>   1</c></rc>
    <rc><c>Cu</c><c>   1</c></rc>
   </set>
  </array>
  <array name="atomtypes" >
   <dimension dim="1">type</dimension>
   <field type="int">atomspertype</field>
   <field type="string">element</field>
   <field>mass</field>
   <field>valence</field>
   <field type="string">pseudopotential</field>
   <set>
    <rc><c>  36</c><c>Cu</c><c>     63.54600000</c><c>     11.00000000</c><c>  PAW_PBE Cu 22Jun2005                  </c></rc>
   </set>
  </array>
 </atominfo>
 <structure name="initialpos" >
  <crystal>
   <varray name="basis" >
    <v>       7.70037500       0.00000000       0.00000000 </v>
    <v>       0.00000000       7.70037500       0.00000000 </v>
    <v>       0.00000000       0.00000000      22.25999800 </v>
   </varray>
   <i name="volume">   1319.92383604 </i>
   <varray name="rec_basis" >
    <v>       0.12986381       0.00000000       0.00000000 </v>
    <v>       0.00000000       0.12986381       0.00000000 </v>
    <v>       0.00000000       0.00000000       0.04492363 </v>
   </varray>
  </crystal>
  <varray name="positions" >
   <v>       0.16666708       0.16666708       0.00000000 </v>
   <v>       0.50000110       0.16666708       0.00000000 </v>
   <v>       0.83333526       0.16666708       0.00000000 </v>
   <v>       0.16666708       0.50000110       0.00000000 </v>
   <v>       0.50000110       0.50000110       0.00000000 </v>
   <v>       0.83333526       0.50000110       0.00000000 </v>
   <v>       0.16666708       0.83333526       0.00000000 </v>
   <v>       0.50000110       0.83333526       0.00000000 </v>
   <v>       0.83333526       0.83333526       0.00000000 </v>
   <v>       0.00000000       0.00000000       0.08153640 </v>
   <v>       0.33333416       0.00000000       0.08153640 </v>
   <v>       0.66666818       0.00000000       0.08153640 </v>
   <v>       0.00000000       0.33333416       0.08153640 </v>
   <v>       0.33333416       0.33333416       0.08153640 </v>
   <v>       0.66666818       0.33333416       0.08153640 </v>
   <v>       0.00000000       0.66666818       0.08153640 </v>
   <v>       0.33333416       0.66666818       0.08153640 </v>
   <v>       0.66666818       0.66666818       0.08153640 </v>
   <v>       0.16749132       0.16755171       0.16633056 </v>
   <v>       0.50023135       0.16854569       0.16659426 </v>
   <v>       0.83382822       0.17046235       0.16772441 </v>
   <v>       0.16775183       0.49998007       0.16359364 </v>
   <v>       0.49814808       0.49989721       0.16238928 </v>
   <v>       0.83170417       0.50060588       0.16558160 </v>
   <v>       0.16698693       0.83269425       0.16625136 </v>
   <v>       0.49959450       0.83143159       0.16657733 </v>
   <v>       0.83341318       0.83126432       0.16761520 </v>
   <v>       0.00132513       0.00111748       0.24773960 </v>
   <v>       0.33395555       0.99946665       0.24757473 </v>
   <v>       0.66657143       0.00089502       0.24789836 </v>
   <v>       0.00244988       0.33616610       0.24967743 </v>
   <v>       0.33544626       0.33422567       0.25154063 </v>
   <v>       0.66548343       0.33587572       0.25168187 </v>
   <v>       0.00045024       0.66549733       0.24947307 </v>
   <v>       0.33368154       0.66454491       0.25157729 </v>
   <v>       0.66443608       0.66598536       0.25129167 </v>
  </varray>
  <varray name="selective"  type="logical" >
   <v type="logical" >  F  F  F </v>
   <v type="logical" >  F  F  F </v>
   <v type="logical" >  F  F  F </v>
   <v type="logical" >  F  F  F </v>
   <v type="logical" >  F  F  F </v>
   <v type="logical" >  F  F  F </v>
   <v type="logical" >  F  F  F </v>
   <v type="logical" >  F  F  F </v>
   <v type="logical" >  F  F  F </v>
   <v type="logical" >  F  F  F </v>
   <v type="logical" >  F  F  F </v>
   <v type="logical" >  F  F  F </v>
   <v type="logical" >  F  F  F </v>
   <v type="logical" >  F  F  F </v>
   <v type="logical" >  F  F  F </v>
   <v type="logical" >  F  F  F </v>
   <v type="logical" >  F  F  F </v>
   <v type="logical" >  F  F  F </v>
   <v type="logical" >  T  T  T </v>
   <v type="logical" >  T  T  T </v>
   <v type="logical" >  T  T  T </v>
   <v type="logical" >  T  T  T </v>
   <v type="logical" >  T  T  T </v>
   <v type="logical" >  T  T  T </v>
   <v type="logical" >  T  T  T </v>
   <v type="logical" >  T  T  T </v>
   <v type="logical" >  T  T  T </v>
   <v type="logical" >  T  T  T </v>
   <v type="logical" >  T  T  T </v>
   <v type="logical" >  T  T  T </v>
   <v type="logical" >  T  T  T </v>
   <v type="logical" >  T  T  T </v>
   <v type="logical" >  T  T  T </v>
   <v type="logical" >  T  T  T </v>
   <v type="logical" >  T  T  T </v>
   <v type="logical" >  T  T  T </v>
  </varray>
  <nose>
   <v>      -3.00000000       0.00000000       0.00010000       0.00010000 </v>
  </nose>
 </structure>
 <calculation>
  <scstep>
   <time name="diag">    3.58    3.63</time>
   <time name="diis">    5.94    5.99</time>
   <time name="orth">    0.71    0.71</time>
   <time name="total">   10.35   10.45</time>
   <dipole>
    <v name="dipole">      0.00000000       0.00000000       0.00006939 </v>
    <i name="Tr[quadrupol]">  -4128.49377527 </i>
    <i name="Echarged">      0.00000000 </i>
    <i name="Edipol_quadrupol">      0.00000000 </i>
    <i name="Eion">      0.00000000 </i>
   </dipole>
   <energy>
    <i name="alphaZ">    663.35537132 </i>
    <i name="ewald"> 164226.44806453 </i>
    <i name="hartreedc">-212025.95640762 </i>
    <i name="XCdc">   1613.73814842 </i>
    <i name="pawpsdc">  44243.50493509 </i>
    <i name="pawaedc"> -48017.47383163 </i>
    <i name="eentropy">     -0.01852199 </i>
    <i name="bandstr">   2386.14307669 </i>
    <i name="atom">  50037.92390023 </i>
    <i name="e_fr_energy">   3127.66473504 </i>
    <i name="e_wo_entrp">   3127.68325703 </i>
    <i name="e_0_energy">   3127.66936554 </i>
   </energy>
  </scstep>
  <scstep>
   <time name="diag">    3.12    3.15</time>
   <time name="diis">    5.87    5.92</time>
   <time name="orth">    0.72    0.72</time>
   <time name="total">    9.71    9.80</time>
   <dipole>
    <v name="dipole">      0.00000000       0.00000000       0.00006939 </v>
    <i name="Tr[quadrupol]">  -4128.49377527 </i>
    <i name="Echarged">      0.00000000 </i>
    <i name="Edipol_quadrupol">      0.00000000 </i>
    <i name="Eion">      0.00000000 </i>
   </dipole>
   <energy>
    <i name="e_fr_energy">    707.33218391 </i>
    <i name="e_wo_entrp">    707.37361659 </i>
    <i name="e_0_energy">    707.34254208 </i>
   </energy>
  </scstep>
  <scstep>
   <time name="diag">    3.21    3.24</time>
   <time name="diis">    5.96    6.00</time>
   <time name="orth">    0.72    0.72</time>
   <time name="total">    9.88    9.97</time>
   <dipole>
    <v name="dipole">      0.00000000       0.00000000       0.00006939 </v>
    <i name="Tr[quadrupol]">  -4128.49377527 </i>
    <i name="Echarged">      0.00000000 </i>
    <i name="Edipol_quadrupol">      0.00000000 </i>
    <i name="Eion">      0.00000000 </i>
   </dipole>
   <energy>
    <i name="e_fr_energy">    171.53088723 </i>
    <i name="e_wo_entrp">    171.52435825 </i>
    <i name="e_0_energy">    171.52925498 </i>
   </energy>
  </scstep>
  <scstep>
   <time name="diag">    3.15    3.18</time>
   <time name="diis">    4.69    4.73</time>
   <time name="orth">    0.69    0.70</time>
   <time name="total">    8.54    8.61</time>
   <dipole>
    <v name="dipole">      0.00000000       0.00000000       0.00006939 </v>
    <i name="Tr[quadrupol]">  -4128.49377527 </i>
    <i name="Echarged">      0.00000000 </i>
    <i name="Edipol_quadrupol">      0.00000000 </i>
    <i name="Eion">      0.00000000 </i>
   </dipole>
   <energy>
    <i name="e_fr_energy">    -43.01221945 </i>
    <i name="e_wo_entrp">    -43.02042760 </i>
    <i name="e_0_energy">    -43.01427149 </i>
   </energy>
  </scstep>
  <scstep>
   <time name="diag">    2.94    2.96</time>
   <time name="diis">    5.87    5.92</time>
   <time name="orth">    0.71    0.72</time>
   <time name="total">    9.52    9.60</time>
   <dipole>
    <v name="dipole">      0.00000000       0.00000000       0.00006939 </v>
    <i name="Tr[quadrupol]">  -4128.49377527 </i>
    <i name="Echarged">      0.00000000 </i>
    <i name="Edipol_quadrupol">      0.00000000 </i>
    <i name="Eion">      0.00000000 </i>
   </dipole>
   <energy>
    <i name="e_fr_energy">    -98.66191903 </i>
    <i name="e_wo_entrp">    -98.70085744 </i>
    <i name="e_0_energy">    -98.67165363 </i>
   </energy>
  </scstep>
  <scstep>
   <time name="diag">    3.23    3.26</time>
   <time name="diis">    5.95    6.00</time>
   <time name="orth">    0.70    0.71</time>
   <time name="total">    9.89    9.97</time>
   <dipole>
    <v name="dipole">      0.00000000       0.00000000       0.00006939 </v>
    <i name="Tr[quadrupol]">  -4128.49377527 </i>
    <i name="Echarged">      0.00000000 </i>
    <i name="Edipol_quadrupol">      0.00000000 </i>
    <i name="Eion">      0.00000000 </i>
   </dipole>
   <energy>
    <i name="e_fr_energy">   -121.46467398 </i>
    <i name="e_wo_entrp">   -121.46205259 </i>
    <i name="e_0_energy">   -121.46401863 </i>
   </energy>
  </scstep>
  <scstep>
   <time name="diag">    3.01    3.04</time>
   <time name="diis">    4.71    4.74</time>
   <time name="orth">    0.69    0.70</time>
   <time name="total">    8.41    8.48</time>
   <dipole>
    <v name="dipole">      0.00000000       0.00000000       0.00006939 </v>
    <i name="Tr[quadrupol]">  -4128.49377527 </i>
    <i name="Echarged">      0.00000000 </i>
    <i name="Edipol_quadrupol">      0.00000000 </i>
    <i name="Eion">      0.00000000 </i>
   </dipole>
   <energy>
    <i name="e_fr_energy">   -133.14644964 </i>
    <i name="e_wo_entrp">   -133.17677923 </i>
    <i name="e_0_energy">   -133.15403203 </i>
   </energy>
  </scstep>
  <scstep>
   <time name="diag">    3.00    3.03</time>
   <time name="diis">    5.98    6.03</time>
   <time name="orth">    0.71    0.71</time>
   <time name="total">    9.69    9.77</time>
   <dipole>
    <v name="dipole">      0.00000000       0.00000000       0.00006939 </v>
    <i name="Tr[quadrupol]">  -4128.49377527 </i>
    <i name="Echarged">      0.00000000 </i>
    <i name="Edipol_quadrupol">      0.00000000 </i>
    <i name="Eion">      0.00000000 </i>
   </dipole>
   <energy>
    <i name="e_fr_energy">   -139.39930179 </i>
    <i name="e_wo_entrp">   -139.44534283 </i>
    <i name="e_0_energy">   -139.41081205 </i>
   </energy>
  </scstep>
  <scstep>
   <time name="diag">    3.22    3.25</time>
   <time name="diis">   15.26   15.38</time>
   <time name="orth">    0.68    0.68</time>
   <time name="total">   19.16   19.32</time>
   <dipole>
    <v name="dipole">      0.00000000       0.00000000       0.00006939 </v>
    <i name="Tr[quadrupol]">  -4128.49377527 </i>
    <i name="Echarged">      0.00000000 </i>
    <i name="Edipol_quadrupol">      0.00000000 </i>
    <i name="Eion">      0.00000000 </i>
   </dipole>
   <energy>
    <i name="e_fr_energy">   -146.14388513 </i>
    <i name="e_wo_entrp">   -146.16592368 </i>
    <i name="e_0_energy">   -146.14939477 </i>
   </energy>
  </scstep>
  <scstep>
   <time name="diag">    3.20    3.23</time>
   <time name="diis">   12.90   13.00</time>
   <time name="orth">    0.70    0.71</time>
   <time name="total">   16.80   16.94</time>
   <dipole>
    <v name="dipole">      0.00000000       0.00000000       0.00006939 </v>
    <i name="Tr[quadrupol]">  -4128.49377527 </i>
    <i name="Echarged">      0.00000000 </i>
    <i name="Edipol_quadrupol">      0.00000000 </i>
    <i name="Eion">      0.00000000 </i>
   </dipole>
   <energy>
    <i name="e_fr_energy">   -146.33790026 </i>
    <i name="e_wo_entrp">   -146.38739809 </i>
    <i name="e_0_energy">   -146.35027472 </i>
   </energy>
  </scstep>
  <scstep>
   <time name="diag">    2.90    2.93</time>
   <time name="diis">   16.00   16.13</time>
   <time name="orth">    0.71    0.71</time>
   <time name="total">   19.61   19.77</time>
   <dipole>
    <v name="dipole">      0.00000000       0.00000000       0.00006939 </v>
    <i name="Tr[quadrupol]">  -4128.49377527 </i>
    <i name="Echarged">      0.00000000 </i>
    <i name="Edipol_quadrupol">      0.00000000 </i>
    <i name="Eion">      0.00000000 </i>
   </dipole>
   <energy>
    <i name="e_fr_energy">   -146.43710677 </i>
    <i name="e_wo_entrp">   -146.48720155 </i>
    <i name="e_0_energy">   -146.44963046 </i>
   </energy>
  </scstep>
  <scstep>
   <time name="diag">    3.21    3.24</time>
   <time name="diis">   10.87   10.96</time>
   <time name="orth">    0.68    0.69</time>
   <time name="total">   15.53   15.66</time>
   <dipole>
    <v name="dipole">      0.00000000       0.00000000       0.00006939 </v>
    <i name="Tr[quadrupol]">  -4128.49377527 </i>
    <i name="Echarged">      0.00000000 </i>
    <i name="Edipol_quadrupol">      0.00000000 </i>
    <i name="Eion">      0.00000000 </i>
   </dipole>
   <energy>
    <i name="e_fr_energy">   -146.43834324 </i>
    <i name="e_wo_entrp">   -146.48841454 </i>
    <i name="e_0_energy">   -146.45086107 </i>
   </energy>
  </scstep>
  <scstep>
   <time name="diag">    3.14    3.17</time>
   <time name="diis">   17.77   17.91</time>
   <time name="orth">    0.66    0.66</time>
   <time name="total">   22.41   22.59</time>
   <dipole>
    <v name="dipole">      0.00000000       0.00000000       8.01006253 </v>
    <i name="Tr[quadrupol]">  -4127.26931660 </i>
    <i name="Echarged">      0.00000000 </i>
    <i name="Edipol_quadrupol">      0.00000000 </i>
    <i name="Eion">      0.00000000 </i>
   </dipole>
   <energy>
    <i name="e_fr_energy">   -481.42872455 </i>
    <i name="e_wo_entrp">   -481.35448230 </i>
    <i name="e_0_energy">   -481.41016399 </i>
   </energy>
  </scstep>
  <scstep>
   <time name="diag">    2.90    2.92</time>
   <time name="diis">   12.12   12.21</time>
   <time name="orth">    0.71    0.71</time>
   <time name="total">   16.67   16.80</time>
   <dipole>
    <v name="dipole">      0.00000000       0.00000000       2.57451201 </v>
    <i name="Tr[quadrupol]">  -4128.46441440 </i>
    <i name="Echarged">      0.00000000 </i>
    <i name="Edipol_quadrupol">      0.00000000 </i>
    <i name="Eion">      0.00000000 </i>
   </dipole>
   <energy>
    <i name="e_fr_energy">   -170.42565585 </i>
    <i name="e_wo_entrp">   -170.37941500 </i>
    <i name="e_0_energy">   -170.41409564 </i>
   </energy>
  </scstep>
  <scstep>
   <time name="diag">    3.19    3.22</time>
   <time name="diis">    9.82    9.90</time>
   <time name="orth">    0.71    0.71</time>
   <time name="total">   14.68   14.80</time>
   <dipole>
    <v name="dipole">      0.00000000       0.00000000       1.41024463 </v>
    <i name="Tr[quadrupol]">  -4125.74638532 </i>
    <i name="Echarged">      0.00000000 </i>
    <i name="Edipol_quadrupol">      0.00000000 </i>
    <i name="Eion">      0.00000000 </i>
   </dipole>
   <energy>
    <i name="e_fr_energy">   -117.37315222 </i>
    <i name="e_wo_entrp">   -117.37428997 </i>
    <i name="e_0_energy">   -117.37343666 </i>
   </energy>
  </scstep>
  <scstep>
   <time name="diag">    3.20    3.23</time>
   <time name="diis">   11.24   11.33</time>
   <time name="orth">    0.68    0.69</time>
   <time name="total">   15.96   16.09</time>
   <dipole>
    <v name="dipole">      0.00000000       0.00000000       1.88089627 </v>
    <i name="Tr[quadrupol]">  -4127.12039773 </i>
    <i name="Echarged">      0.00000000 </i>
    <i name="Edipol_quadrupol">      0.00000000 </i>
    <i name="Eion">      0.00000000 </i>
   </dipole>
   <energy>
    <i name="e_fr_energy">   -110.96219738 </i>
    <i name="e_wo_entrp">   -110.99925250 </i>
    <i name="e_0_energy">   -110.97146116 </i>
   </energy>
  </scstep>
  <scstep>
   <time name="diag">    2.90    2.92</time>
   <time name="diis">   11.92   12.02</time>
   <time name="orth">    0.71    0.71</time>
   <time name="total">   16.34   16.47</time>
   <dipole>
    <v name="dipole">      0.00000000       0.00000000       1.70540380 </v>
    <i name="Tr[quadrupol]">  -4128.05715178 </i>
    <i name="Echarged">      0.00000000 </i>
    <i name="Edipol_quadrupol">      0.00000000 </i>
    <i name="Eion">      0.00000000 </i>
   </dipole>
   <energy>
    <i name="e_fr_energy">   -108.70029738 </i>
    <i name="e_wo_entrp">   -108.73737995 </i>
    <i name="e_0_energy">   -108.70956802 </i>
   </energy>
  </scstep>
  <scstep>
   <time name="diag">    2.88    2.90</time>
   <time name="diis">   12.17   12.27</time>
   <time name="orth">    0.68    0.68</time>
   <time name="total">   16.56   16.69</time>
   <dipole>
    <v name="dipole">      0.00000000       0.00000000       1.46965711 </v>
    <i name="Tr[quadrupol]">  -4128.88029687 </i>
    <i name="Echarged">      0.00000000 </i>
    <i name="Edipol_quadrupol">      0.00000000 </i>
    <i name="Eion">      0.00000000 </i>
   </dipole>
   <energy>
    <i name="e_fr_energy">   -108.71998911 </i>
    <i name="e_wo_entrp">   -108.73895143 </i>
    <i name="e_0_energy">   -108.72472969 </i>
   </energy>
  </scstep>
  <scstep>
   <time name="diag">    2.91    2.93</time>
   <time name="diis">   11.79   11.88</time>
   <time name="orth">    0.71    0.71</time>
   <time name="total">   16.35   16.47</time>
   <dipole>
    <v name="dipole">      0.00000000       0.00000000       1.38970864 </v>
    <i name="Tr[quadrupol]">  -4129.98127046 </i>
    <i name="Echarged">      0.00000000 </i>
    <i name="Edipol_quadrupol">      0.00000000 </i>
    <i name="Eion">      0.00000000 </i>
   </dipole>
   <energy>
    <i name="e_fr_energy">   -108.47022041 </i>
    <i name="e_wo_entrp">   -108.47641577 </i>
    <i name="e_0_energy">   -108.47176925 </i>
   </energy>
  </scstep>
  <scstep>
   <time name="diag">    3.15    3.18</time>
   <time name="diis">   12.02   12.11</time>
   <time name="orth">    0.65    0.65</time>
   <time name="total">   16.62   16.75</time>
   <dipole>
    <v name="dipole">      0.00000000       0.00000000       1.49942238 </v>
    <i name="Tr[quadrupol]">  -4130.52275769 </i>
    <i name="Echarged">      0.00000000 </i>
    <i name="Edipol_quadrupol">      0.00000000 </i>
    <i name="Eion">      0.00000000 </i>
   </dipole>
   <energy>
    <i name="e_fr_energy">   -108.33864441 </i>
    <i name="e_wo_entrp">   -108.34176374 </i>
    <i name="e_0_energy">   -108.33942424 </i>
   </energy>
  </scstep>
  <scstep>
   <time name="diag">    2.97    3.00</time>
   <time name="diis">   10.79   10.87</time>
   <time name="orth">    0.71    0.71</time>
   <time name="total">   15.40   15.52</time>
   <dipole>
    <v name="dipole">      0.00000000       0.00000000       1.51724958 </v>
    <i name="Tr[quadrupol]">  -4130.81737152 </i>
    <i name="Echarged">      0.00000000 </i>
    <i name="Edipol_quadrupol">      0.00000000 </i>
    <i name="Eion">      0.00000000 </i>
   </dipole>
   <energy>
    <i name="e_fr_energy">   -108.32953906 </i>
    <i name="e_wo_entrp">   -108.33137113 </i>
    <i name="e_0_energy">   -108.32999708 </i>
   </energy>
  </scstep>
  <scstep>
   <time name="diag">    3.22    3.24</time>
   <time name="diis">   11.71   11.80</time>
   <time name="orth">    0.70    0.71</time>
   <time name="total">   16.45   16.58</time>
   <dipole>
    <v name="dipole">      0.00000000       0.00000000       1.48511714 </v>
    <i name="Tr[quadrupol]">  -4131.30192376 </i>
    <i name="Echarged">      0.00000000 </i>
    <i name="Edipol_quadrupol">      0.00000000 </i>
    <i name="Eion">      0.00000000 </i>
   </dipole>
   <energy>
    <i name="e_fr_energy">   -108.30750407 </i>
    <i name="e_wo_entrp">   -108.30481118 </i>
    <i name="e_0_energy">   -108.30683085 </i>
   </energy>
  </scstep>
  <scstep>
   <time name="diag">    2.87    2.89</time>
   <time name="diis">   11.87   11.97</time>
   <time name="orth">    0.71    0.71</time>
   <time name="total">   16.40   16.53</time>
   <dipole>
    <v name="dipole">      0.00000000       0.00000000       1.47971035 </v>
    <i name="Tr[quadrupol]">  -4131.50074110 </i>
    <i name="Echarged">      0.00000000 </i>
    <i name="Edipol_quadrupol">      0.00000000 </i>
    <i name="Eion">      0.00000000 </i>
   </dipole>
   <energy>
    <i name="e_fr_energy">   -108.30481677 </i>
    <i name="e_wo_entrp">   -108.30127135 </i>
    <i name="e_0_energy">   -108.30393042 </i>
   </energy>
  </scstep>
  <scstep>
   <time name="diag">    3.21    3.24</time>
   <time name="diis">   10.34   10.43</time>
   <time name="orth">    0.69    0.69</time>
   <time name="total">   15.09   15.21</time>
   <dipole>
    <v name="dipole">      0.00000000       0.00000000       1.45928948 </v>
    <i name="Tr[quadrupol]">  -4131.87020092 </i>
    <i name="Echarged">      0.00000000 </i>
    <i name="Edipol_quadrupol">      0.00000000 </i>
    <i name="Eion">      0.00000000 </i>
   </dipole>
   <energy>
    <i name="e_fr_energy">   -108.30082093 </i>
    <i name="e_wo_entrp">   -108.29470472 </i>
    <i name="e_0_energy">   -108.29929187 </i>
   </energy>
  </scstep>
  <scstep>
   <time name="diag">    3.06    3.09</time>
   <time name="diis">   12.12   12.21</time>
   <time name="orth">    0.71    0.71</time>
   <time name="total">   16.87   17.00</time>
   <dipole>
    <v name="dipole">      0.00000000       0.00000000       1.43493663 </v>
    <i name="Tr[quadrupol]">  -4132.30515185 </i>
    <i name="Echarged">      0.00000000 </i>
    <i name="Edipol_quadrupol">      0.00000000 </i>
    <i name="Eion">      0.00000000 </i>
   </dipole>
   <energy>
    <i name="e_fr_energy">   -108.30052343 </i>
    <i name="e_wo_entrp">   -108.29172118 </i>
    <i name="e_0_energy">   -108.29832286 </i>
   </energy>
  </scstep>
  <scstep>
   <time name="diag">    3.08    3.10</time>
   <time name="diis">    9.62    9.70</time>
   <time name="orth">    0.71    0.72</time>
   <time name="total">   14.36   14.48</time>
   <dipole>
    <v name="dipole">      0.00000000       0.00000000       1.43108543 </v>
    <i name="Tr[quadrupol]">  -4132.67256057 </i>
    <i name="Echarged">      0.00000000 </i>
    <i name="Edipol_quadrupol">      0.00000000 </i>
    <i name="Eion">      0.00000000 </i>
   </dipole>
   <energy>
    <i name="e_fr_energy">   -108.30083578 </i>
    <i name="e_wo_entrp">   -108.29198126 </i>
    <i name="e_0_energy">   -108.29862215 </i>
   </energy>
  </scstep>
  <scstep>
   <time name="diag">    3.22    3.25</time>
   <time name="diis">   11.81   11.90</time>
   <time name="orth">    0.64    0.65</time>
   <time name="total">   16.55   16.68</time>
   <dipole>
    <v name="dipole">      0.00000000       0.00000000       1.43256899 </v>
    <i name="Tr[quadrupol]">  -4133.30763719 </i>
    <i name="Echarged">      0.00000000 </i>
    <i name="Edipol_quadrupol">      0.00000000 </i>
    <i name="Eion">      0.00000000 </i>
   </dipole>
   <energy>
    <i name="e_fr_energy">   -108.30230103 </i>
    <i name="e_wo_entrp">   -108.29406081 </i>
    <i name="e_0_energy">   -108.30024098 </i>
   </energy>
  </scstep>
  <scstep>
   <time name="diag">    2.87    2.89</time>
   <time name="diis">   10.72   10.80</time>
   <time name="orth">    0.71    0.71</time>
   <time name="total">   15.27   15.72</time>
   <dipole>
    <v name="dipole">      0.00000000       0.00000000       1.42802512 </v>
    <i name="Tr[quadrupol]">  -4133.95915780 </i>
    <i name="Echarged">      0.00000000 </i>
    <i name="Edipol_quadrupol">      0.00000000 </i>
    <i name="Eion">      0.00000000 </i>
   </dipole>
   <energy>
    <i name="e_fr_energy">   -108.30274890 </i>
    <i name="e_wo_entrp">   -108.29409350 </i>
    <i name="e_0_energy">   -108.30058505 </i>
   </energy>
  </scstep>
  <scstep>
   <time name="diag">    3.19    3.22</time>
   <time name="diis">    9.90    9.98</time>
   <time name="orth">    0.67    0.67</time>
   <time name="total">   14.63   14.75</time>
   <dipole>
    <v name="dipole">      0.00000000       0.00000000       1.44181708 </v>
    <i name="Tr[quadrupol]">  -4137.00673078 </i>
    <i name="Echarged">      0.00000000 </i>
    <i name="Edipol_quadrupol">      0.00000000 </i>
    <i name="Eion">      0.00000000 </i>
   </dipole>
   <energy>
    <i name="e_fr_energy">   -108.30313436 </i>
    <i name="e_wo_entrp">   -108.29470839 </i>
    <i name="e_0_energy">   -108.30102786 </i>
   </energy>
  </scstep>
  <scstep>
   <time name="diag">    2.90    2.92</time>
   <time name="diis">    8.15    8.22</time>
   <time name="orth">    0.71    0.71</time>
   <time name="total">   12.72   12.82</time>
   <dipole>
    <v name="dipole">      0.00000000       0.00000000       1.44767119 </v>
    <i name="Tr[quadrupol]">  -4138.56015425 </i>
    <i name="Echarged">      0.00000000 </i>
    <i name="Edipol_quadrupol">      0.00000000 </i>
    <i name="Eion">      0.00000000 </i>
   </dipole>
   <energy>
    <i name="e_fr_energy">   -108.30325496 </i>
    <i name="e_wo_entrp">   -108.29488648 </i>
    <i name="e_0_energy">   -108.30116284 </i>
   </energy>
  </scstep>
  <scstep>
   <time name="diag">    3.21    3.24</time>
   <time name="diis">    9.32    9.39</time>
   <time name="orth">    0.67    0.67</time>
   <time name="total">   14.07   14.18</time>
   <dipole>
    <v name="dipole">      0.00000000       0.00000000       1.44433505 </v>
    <i name="Tr[quadrupol]">  -4139.08235369 </i>
    <i name="Echarged">      0.00000000 </i>
    <i name="Edipol_quadrupol">      0.00000000 </i>
    <i name="Eion">      0.00000000 </i>
   </dipole>
   <energy>
    <i name="e_fr_energy">   -108.30330166 </i>
    <i name="e_wo_entrp">   -108.29474023 </i>
    <i name="e_0_energy">   -108.30116131 </i>
   </energy>
  </scstep>
  <scstep>
   <time name="diag">    2.90    2.92</time>
   <time name="diis">    9.54    9.61</time>
   <time name="orth">    0.71    0.72</time>
   <time name="total">   14.14   14.25</time>
   <dipole>
    <v name="dipole">      0.00000000       0.00000000       1.43990746 </v>
    <i name="Tr[quadrupol]">  -4139.36672544 </i>
    <i name="Echarged">      0.00000000 </i>
    <i name="Edipol_quadrupol">      0.00000000 </i>
    <i name="Eion">      0.00000000 </i>
   </dipole>
   <energy>
    <i name="e_fr_energy">   -108.30351103 </i>
    <i name="e_wo_entrp">   -108.29471930 </i>
    <i name="e_0_energy">   -108.30131310 </i>
   </energy>
  </scstep>
  <scstep>
   <time name="diag">    3.20    3.23</time>
   <time name="diis">    7.17    7.23</time>
   <time name="orth">    0.66    0.67</time>
   <time name="total">   11.86   11.95</time>
   <dipole>
    <v name="dipole">      0.00000000       0.00000000       1.44049661 </v>
    <i name="Tr[quadrupol]">  -4139.13912441 </i>
    <i name="Echarged">      0.00000000 </i>
    <i name="Edipol_quadrupol">      0.00000000 </i>
    <i name="Eion">      0.00000000 </i>
   </dipole>
   <energy>
    <i name="e_fr_energy">   -108.30347491 </i>
    <i name="e_wo_entrp">   -108.29475141 </i>
    <i name="e_0_energy">   -108.30129404 </i>
   </energy>
  </scstep>
  <scstep>
   <time name="diag">    2.91    2.93</time>
   <time name="diis">    7.14    7.20</time>
   <time name="orth">    0.71    0.71</time>
   <time name="total">   11.73   11.82</time>
   <dipole>
    <v name="dipole">      0.00000000       0.00000000       1.43940907 </v>
    <i name="Tr[quadrupol]">  -4138.92751659 </i>
    <i name="Echarged">      0.00000000 </i>
    <i name="Edipol_quadrupol">      0.00000000 </i>
    <i name="Eion">      0.00000000 </i>
   </dipole>
   <energy>
    <i name="e_fr_energy">   -108.30354370 </i>
    <i name="e_wo_entrp">   -108.29486445 </i>
    <i name="e_0_energy">   -108.30137389 </i>
   </energy>
  </scstep>
  <scstep>
   <time name="diag">    3.21    3.24</time>
   <time name="diis">    7.24    7.29</time>
   <time name="orth">    0.66    0.66</time>
   <time name="total">   11.96   12.05</time>
   <dipole>
    <v name="dipole">      0.00000000       0.00000000       1.43643358 </v>
    <i name="Tr[quadrupol]">  -4138.44868410 </i>
    <i name="Echarged">      0.00000000 </i>
    <i name="Edipol_quadrupol">      0.00000000 </i>
    <i name="Eion">      0.00000000 </i>
   </dipole>
   <energy>
    <i name="e_fr_energy">   -108.30359678 </i>
    <i name="e_wo_entrp">   -108.29486035 </i>
    <i name="e_0_energy">   -108.30141267 </i>
   </energy>
  </scstep>
  <scstep>
   <time name="diag">    2.89    2.91</time>
   <time name="diis">    6.14    6.18</time>
   <time name="orth">    0.71    0.71</time>
   <time name="total">   10.71   10.80</time>
   <dipole>
    <v name="dipole">      0.00000000       0.00000000       1.43546889 </v>
    <i name="Tr[quadrupol]">  -4138.20701075 </i>
    <i name="Echarged">      0.00000000 </i>
    <i name="Edipol_quadrupol">      0.00000000 </i>
    <i name="Eion">      0.00000000 </i>
   </dipole>
   <energy>
    <i name="e_fr_energy">   -108.30362332 </i>
    <i name="e_wo_entrp">   -108.29489554 </i>
    <i name="e_0_energy">   -108.30144138 </i>
   </energy>
  </scstep>
  <scstep>
   <time name="diag">    3.19    3.22</time>
   <time name="diis">    7.25    7.31</time>
   <time name="orth">    0.71    0.71</time>
   <time name="total">   12.12   12.21</time>
   <dipole>
    <v name="dipole">      0.00000000       0.00000000       1.43247668 </v>
    <i name="Tr[quadrupol]">  -4137.72735743 </i>
    <i name="Echarged">      0.00000000 </i>
    <i name="Edipol_quadrupol">      0.00000000 </i>
    <i name="Eion">      0.00000000 </i>
   </dipole>
   <energy>
    <i name="e_fr_energy">   -108.30370284 </i>
    <i name="e_wo_entrp">   -108.29492046 </i>
    <i name="e_0_energy">   -108.30150724 </i>
   </energy>
  </scstep>
  <scstep>
   <time name="diag">    3.05    3.07</time>
   <time name="diis">    5.73    5.77</time>
   <time name="orth">    0.68    0.68</time>
   <time name="total">    9.55    9.62</time>
   <dipole>
    <v name="dipole">      0.00000000       0.00000000       1.43236882 </v>
    <i name="Tr[quadrupol]">  -4137.23334532 </i>
    <i name="Echarged">      0.00000000 </i>
    <i name="Edipol_quadrupol">      0.00000000 </i>
    <i name="Eion">      0.00000000 </i>
   </dipole>
   <energy>
    <i name="alphaZ">    611.51859093 </i>
    <i name="ewald"> 164226.44806453 </i>
    <i name="hartreedc">-211602.17543109 </i>
    <i name="XCdc">   1581.48034548 </i>
    <i name="pawpsdc">  46406.91519361 </i>
    <i name="pawaedc"> -50248.13782713 </i>
    <i name="eentropy">     -0.00876646 </i>
    <i name="bandstr">  -1122.26776562 </i>
    <i name="atom">  50037.92390023 </i>
    <i name="e_fr_energy">   -108.30369552 </i>
    <i name="e_wo_entrp">   -108.29492906 </i>
    <i name="e_0_energy">   -108.30150390 </i>
   </energy>
  </scstep>
  <structure>
   <crystal>
    <varray name="basis" >
     <v>       7.70037500       0.00000000       0.00000000 </v>
     <v>       0.00000000       7.70037500       0.00000000 </v>
     <v>       0.00000000       0.00000000      22.25999800 </v>
    </varray>
    <i name="volume">   1319.92383604 </i>
    <varray name="rec_basis" >
     <v>       0.12986381       0.00000000       0.00000000 </v>
     <v>       0.00000000       0.12986381       0.00000000 </v>
     <v>       0.00000000       0.00000000       0.04492363 </v>
    </varray>
   </crystal>
   <varray name="positions" >
    <v>       0.16666708       0.16666708       0.00000000 </v>
    <v>       0.50000110       0.16666708       0.00000000 </v>
    <v>       0.83333526       0.16666708       0.00000000 </v>
    <v>       0.16666708       0.50000110       0.00000000 </v>
    <v>       0.50000110       0.50000110       0.00000000 </v>
    <v>       0.83333526       0.50000110       0.00000000 </v>
    <v>       0.16666708       0.83333526       0.00000000 </v>
    <v>       0.50000110       0.83333526       0.00000000 </v>
    <v>       0.83333526       0.83333526       0.00000000 </v>
    <v>       0.00000000       0.00000000       0.08153640 </v>
    <v>       0.33333416       0.00000000       0.08153640 </v>
    <v>       0.66666818       0.00000000       0.08153640 </v>
    <v>       0.00000000       0.33333416       0.08153640 </v>
    <v>       0.33333416       0.33333416       0.08153640 </v>
    <v>       0.66666818       0.33333416       0.08153640 </v>
    <v>       0.00000000       0.66666818       0.08153640 </v>
    <v>       0.33333416       0.66666818       0.08153640 </v>
    <v>       0.66666818       0.66666818       0.08153640 </v>
    <v>       0.16749132       0.16755171       0.16633056 </v>
    <v>       0.50023135       0.16854569       0.16659426 </v>
    <v>       0.83382822       0.17046235       0.16772441 </v>
    <v>       0.16775183       0.49998007       0.16359364 </v>
    <v>       0.49814808       0.49989721       0.16238928 </v>
    <v>       0.83170417       0.50060588       0.16558160 </v>
    <v>       0.16698693       0.83269425       0.16625136 </v>
    <v>       0.49959450       0.83143159       0.16657733 </v>
    <v>       0.83341318       0.83126432       0.16761520 </v>
    <v>       0.00132513       0.00111748       0.24773960 </v>
    <v>       0.33395555       0.99946665       0.24757473 </v>
    <v>       0.66657143       0.00089502       0.24789836 </v>
    <v>       0.00244988       0.33616610       0.24967743 </v>
    <v>       0.33544626       0.33422567       0.25154063 </v>
    <v>       0.66548343       0.33587572       0.25168187 </v>
    <v>       0.00045024       0.66549733       0.24947307 </v>
    <v>       0.33368154       0.66454491       0.25157729 </v>
    <v>       0.66443608       0.66598536       0.25129167 </v>
   </varray>
  </structure>
  <varray name="forces" >
   <v>       0.00083336       0.00086930       0.01149287 </v>
   <v>      -0.00034437      -0.00036015       0.01056834 </v>
   <v>      -0.00078146       0.00057259       0.01599335 </v>
   <v>      -0.00164202      -0.00026549      -0.00049050 </v>
   <v>       0.00116856      -0.00019575      -0.00757505 </v>
   <v>      -0.00009459      -0.00009673       0.00438000 </v>
   <v>       0.00058820      -0.00108868       0.01108038 </v>
   <v>      -0.00015730       0.00003868       0.01073624 </v>
   <v>      -0.00093909      -0.00054055       0.01652054 </v>
   <v>      -0.03661555       0.00648317       0.09057087 </v>
   <v>       0.01392443       0.00165960       0.04676706 </v>
   <v>       0.03006470       0.00434348       0.10838049 </v>
   <v>      -0.03727775      -0.04557137      -0.00633622 </v>
   <v>      -0.01929090      -0.09892192      -0.10285927 </v>
   <v>       0.04981460      -0.06994362      -0.03383201 </v>
   <v>      -0.03949818       0.05164033      -0.00740361 </v>
   <v>      -0.02172825       0.09698683      -0.10271520 </v>
   <v>       0.04528889       0.07596094      -0.03308940 </v>
   <v>       0.00437985       0.03346387       0.05851081 </v>
   <v>       0.02244940      -0.01480265       0.04890234 </v>
   <v>      -0.02709759      -0.09044477      -0.07870864 </v>
   <v>      -0.05525885       0.00514759       0.44504759 </v>
   <v>       0.08167185       0.00355579       0.61693441 </v>
   <v>       0.01917829      -0.00281599       0.23469216 </v>
   <v>       0.00205752      -0.03625973       0.06997244 </v>
   <v>       0.02834395       0.01650957       0.04987397 </v>
   <v>      -0.03003708       0.08005451      -0.07848403 </v>
   <v>      -0.01161991      -0.01332472       0.02564284 </v>
   <v>       0.00198754       0.00051790       0.03771253 </v>
   <v>       0.00002244      -0.00412848       0.01761297 </v>
   <v>      -0.01553795      -0.00820182      -0.15923672 </v>
   <v>      -0.03886808       0.01152595      -0.30640153 </v>
   <v>       0.03997370       0.00518961      -0.28816220 </v>
   <v>       0.00365018       0.01281668      -0.15071401 </v>
   <v>      -0.03047657      -0.00990953      -0.31593277 </v>
   <v>       0.02186800      -0.01046443      -0.25945105 </v>
  </varray>
  <varray name="stress" >
   <v>      -4.62372807      -0.01506881      -0.04649536 </v>
   <v>      -0.01506854      -4.59054000      -0.09759705 </v>
   <v>      -0.04649512      -0.09759718      -4.65056350 </v>
  </varray>
  <energy>
   <i name="e_fr_energy">   -108.30369552 </i>
   <i name="e_wo_entrp">   -108.30150390 </i>
   <i name="e_0_energy">     -0.00876646 </i>
  </energy>
  <time name="totalsc">  546.00  550.74</time>
  <eigenvalues>
   <array>
    <dimension dim="1">band</dimension>
    <dimension dim="2">kpoint</dimension>
    <dimension dim="3">spin</dimension>
    <field>eigene</field>
    <field>occ</field>
    <set>
     <set comment="spin 1">
      <set comment="kpoint 1">
       <r>   -8.5428    1.0000 </r>
       <r>   -6.9964    1.0000 </r>
       <r>   -6.7184    1.0000 </r>
       <r>   -6.7122    1.0000 </r>
       <r>   -5.7342    1.0000 </r>
       <r>   -5.7281    1.0000 </r>
       <r>   -5.4817    1.0000 </r>
       <r>   -5.4749    1.0000 </r>
       <r>   -5.2809    1.0000 </r>
       <r>   -5.1019    1.0000 </r>
       <r>   -4.9689    1.0000 </r>
       <r>   -4.9623    1.0000 </r>
       <r>   -4.7498    1.0000 </r>
       <r>   -4.7476    1.0000 </r>
       <r>   -4.6497    1.0000 </r>
       <r>   -4.5678    1.0000 </r>
       <r>   -4.3500    1.0000 </r>
       <r>   -4.3238    1.0000 </r>
       <r>   -4.3138    1.0000 </r>
       <r>   -4.2934    1.0000 </r>
       <r>   -4.2859    1.0000 </r>
       <r>   -4.2404    1.0000 </r>
       <r>   -4.1700    1.0000 </r>
       <r>   -4.1107    1.0000 </r>
       <r>   -4.1093    1.0000 </r>
       <r>   -4.0480    1.0000 </r>
       <r>   -4.0346    1.0000 </r>
       <r>   -4.0305    1.0000 </r>
       <r>   -3.9963    1.0000 </r>
       <r>   -3.9911    1.0000 </r>
       <r>   -3.9851    1.0000 </r>
       <r>   -3.9748    1.0000 </r>
       <r>   -3.9675    1.0000 </r>
       <r>   -3.8995    1.0000 </r>
       <r>   -3.8940    1.0000 </r>
       <r>   -3.8911    1.0000 </r>
       <r>   -3.8853    1.0000 </r>
       <r>   -3.8757    1.0000 </r>
       <r>   -3.7951    1.0000 </r>
       <r>   -3.7912    1.0000 </r>
       <r>   -3.7439    1.0000 </r>
       <r>   -3.7273    1.0000 </r>
       <r>   -3.7028    1.0000 </r>
       <r>   -3.6962    1.0000 </r>
       <r>   -3.6096    1.0000 </r>
       <r>   -3.4987    1.0000 </r>
       <r>   -3.4953    1.0000 </r>
       <r>   -3.4852    1.0000 </r>
       <r>   -3.4794    1.0000 </r>
       <r>   -3.4465    1.0000 </r>
       <r>   -3.4193    1.0000 </r>
       <r>   -3.3977    1.0000 </r>
       <r>   -3.3912    1.0000 </r>
       <r>   -3.3890    1.0000 </r>
       <r>   -3.3476    1.0000 </r>
       <r>   -3.2812    1.0000 </r>
       <r>   -3.2798    1.0000 </r>
       <r>   -3.2599    1.0000 </r>
       <r>   -3.2182    1.0000 </r>
       <r>   -3.2151    1.0000 </r>
       <r>   -3.2122    1.0000 </r>
       <r>   -3.1902    1.0000 </r>
       <r>   -3.1679    1.0000 </r>
       <r>   -3.1624    1.0000 </r>
       <r>   -3.1592    1.0000 </r>
       <r>   -3.1425    1.0000 </r>
       <r>   -3.1355    1.0000 </r>
       <r>   -3.1306    1.0000 </r>
       <r>   -3.0797    1.0000 </r>
       <r>   -3.0766    1.0000 </r>
       <r>   -3.0719    1.0000 </r>
       <r>   -2.9745    1.0000 </r>
       <r>   -2.9652    1.0000 </r>
       <r>   -2.9548    1.0000 </r>
       <r>   -2.9464    1.0000 </r>
       <r>   -2.9197    1.0000 </r>
       <r>   -2.9061    1.0000 </r>
       <r>   -2.9009    1.0000 </r>
       <r>   -2.8661    1.0000 </r>
       <r>   -2.8611    1.0000 </r>
       <r>   -2.8519    1.0000 </r>
       <r>   -2.8438    1.0000 </r>
       <r>   -2.8391    1.0000 </r>
       <r>   -2.8339    1.0000 </r>
       <r>   -2.8164    1.0000 </r>
       <r>   -2.8131    1.0000 </r>
       <r>   -2.8078    1.0000 </r>
       <r>   -2.8023    1.0000 </r>
       <r>   -2.7990    1.0000 </r>
       <r>   -2.7894    1.0000 </r>
       <r>   -2.7809    1.0000 </r>
       <r>   -2.7717    1.0000 </r>
       <r>   -2.7620    1.0000 </r>
       <r>   -2.7491    1.0000 </r>
       <r>   -2.7333    1.0000 </r>
       <r>   -2.7295    1.0000 </r>
       <r>   -2.6836    1.0000 </r>
       <r>   -2.6797    1.0000 </r>
       <r>   -2.6350    1.0000 </r>
       <r>   -2.5812    1.0000 </r>
       <r>   -2.5799    1.0000 </r>
       <r>   -2.5465    1.0000 </r>
       <r>   -2.5421    1.0000 </r>
       <r>   -2.4384    1.0000 </r>
       <r>   -2.4269    1.0000 </r>
       <r>   -2.4206    1.0000 </r>
       <r>   -2.4176    1.0000 </r>
       <r>   -2.3884    1.0000 </r>
       <r>   -2.3817    1.0000 </r>
       <r>   -2.3705    1.0000 </r>
       <r>   -2.3649    1.0000 </r>
       <r>   -2.3504    1.0000 </r>
       <r>   -2.3229    1.0000 </r>
       <r>   -2.3188    1.0000 </r>
       <r>   -2.3182    1.0000 </r>
       <r>   -2.3142    1.0000 </r>
       <r>   -2.2951    1.0000 </r>
       <r>   -2.2876    1.0000 </r>
       <r>   -2.2830    1.0000 </r>
       <r>   -2.2799    1.0000 </r>
       <r>   -2.2656    1.0000 </r>
       <r>   -2.2614    1.0000 </r>
       <r>   -2.2393    1.0000 </r>
       <r>   -2.2196    1.0000 </r>
       <r>   -2.2132    1.0000 </r>
       <r>   -2.2107    1.0000 </r>
       <r>   -2.2059    1.0000 </r>
       <r>   -2.1921    1.0000 </r>
       <r>   -2.1911    1.0000 </r>
       <r>   -2.1843    1.0000 </r>
       <r>   -2.1829    1.0000 </r>
       <r>   -2.1791    1.0000 </r>
       <r>   -2.1749    1.0000 </r>
       <r>   -2.1738    1.0000 </r>
       <r>   -2.1630    1.0000 </r>
       <r>   -2.1600    1.0000 </r>
       <r>   -2.1124    1.0000 </r>
       <r>   -2.0953    1.0000 </r>
       <r>   -2.0617    1.0000 </r>
       <r>   -2.0373    1.0000 </r>
       <r>   -2.0283    1.0000 </r>
       <r>   -2.0227    1.0000 </r>
       <r>   -2.0075    1.0000 </r>
       <r>   -1.9972    1.0000 </r>
       <r>   -1.9945    1.0000 </r>
       <r>   -1.9919    1.0000 </r>
       <r>   -1.9814    1.0000 </r>
       <r>   -1.9795    1.0000 </r>
       <r>   -1.9777    1.0000 </r>
       <r>   -1.9765    1.0000 </r>
       <r>   -1.9455    1.0000 </r>
       <r>   -1.9438    1.0000 </r>
       <r>   -1.8959    1.0000 </r>
       <r>   -1.8640    1.0000 </r>
       <r>   -1.8619    1.0000 </r>
       <r>   -1.8536    1.0000 </r>
       <r>   -1.8518    1.0000 </r>
       <r>   -1.8419    1.0000 </r>
       <r>   -1.8379    1.0000 </r>
       <r>   -1.8273    1.0000 </r>
       <r>   -1.8214    1.0000 </r>
       <r>   -1.8191    1.0000 </r>
       <r>   -1.8175    1.0000 </r>
       <r>   -1.8162    1.0000 </r>
       <r>   -1.8151    1.0000 </r>
       <r>   -1.8069    1.0000 </r>
       <r>   -1.8025    1.0000 </r>
       <r>   -1.8007    1.0000 </r>
       <r>   -1.7771    1.0000 </r>
       <r>   -1.7759    1.0000 </r>
       <r>   -1.7396    1.0000 </r>
       <r>   -1.7370    1.0000 </r>
       <r>   -1.7356    1.0000 </r>
       <r>   -1.7313    1.0000 </r>
       <r>   -1.7283    1.0000 </r>
       <r>   -1.6897    1.0000 </r>
       <r>   -1.6544    1.0000 </r>
       <r>   -1.6539    1.0000 </r>
       <r>   -1.6528    1.0000 </r>
       <r>   -1.6508    1.0000 </r>
       <r>   -1.6427    1.0000 </r>
       <r>   -1.6357    1.0000 </r>
       <r>   -1.6345    1.0000 </r>
       <r>   -1.6222    1.0000 </r>
       <r>   -1.6022    1.0000 </r>
       <r>   -1.5912    1.0000 </r>
       <r>   -1.5897    1.0000 </r>
       <r>   -1.5886    1.0000 </r>
       <r>   -1.5825    1.0000 </r>
       <r>   -1.5799    1.0000 </r>
       <r>   -1.5759    1.0000 </r>
       <r>   -1.5295    1.0000 </r>
       <r>   -1.1087    1.0000 </r>
       <r>   -1.1054    1.0000 </r>
       <r>   -0.8499    1.0000 </r>
       <r>   -0.8484    1.0000 </r>
       <r>   -0.7705    0.9999 </r>
       <r>   -0.5012    0.9963 </r>
       <r>   -0.3842    1.0322 </r>
       <r>   -0.1568    0.6273 </r>
       <r>   -0.1527    0.6064 </r>
       <r>    0.1161   -0.0338 </r>
       <r>    0.1219   -0.0310 </r>
       <r>    0.9770    0.0000 </r>
       <r>    1.0498    0.0000 </r>
       <r>    1.1633    0.0000 </r>
       <r>    1.5397    0.0000 </r>
       <r>    1.5465    0.0000 </r>
       <r>    1.9863    0.0000 </r>
       <r>    1.9880    0.0000 </r>
       <r>    2.0526    0.0000 </r>
       <r>    2.0869    0.0000 </r>
       <r>    2.0988    0.0000 </r>
       <r>    3.3021    0.0000 </r>
       <r>    3.3571    0.0000 </r>
       <r>    3.3623    0.0000 </r>
       <r>    3.4265    0.0000 </r>
       <r>    3.4976    0.0000 </r>
       <r>    3.6171    0.0000 </r>
       <r>    3.6204    0.0000 </r>
       <r>    3.8467    0.0000 </r>
       <r>    3.8885    0.0000 </r>
       <r>    3.8941    0.0000 </r>
       <r>    4.0143    0.0000 </r>
       <r>    4.0231    0.0000 </r>
       <r>    4.0365    0.0000 </r>
       <r>    4.0336    0.0000 </r>
       <r>    4.7356    0.0000 </r>
       <r>    4.7372    0.0000 </r>
       <r>    5.0374    0.0000 </r>
       <r>    5.0394    0.0000 </r>
       <r>    5.1169    0.0000 </r>
       <r>    5.1204    0.0000 </r>
       <r>    5.2807    0.0000 </r>
       <r>    5.3943    0.0000 </r>
       <r>    5.4881    0.0000 </r>
       <r>    5.4887    0.0000 </r>
       <r>    5.5665    0.0000 </r>
       <r>    5.6380    0.0000 </r>
       <r>    5.6524    0.0000 </r>
      </set>
      <set comment="kpoint 2">
       <r>   -8.2182    1.0000 </r>
       <r>   -7.5901    1.0000 </r>
       <r>   -6.6967    1.0000 </r>
       <r>   -6.4299    1.0000 </r>
       <r>   -6.1448    1.0000 </r>
       <r>   -5.9091    1.0000 </r>
       <r>   -5.4915    1.0000 </r>
       <r>   -5.2246    1.0000 </r>
       <r>   -5.1003    1.0000 </r>
       <r>   -4.9572    1.0000 </r>
       <r>   -4.8624    1.0000 </r>
       <r>   -4.7921    1.0000 </r>
       <r>   -4.7655    1.0000 </r>
       <r>   -4.7549    1.0000 </r>
       <r>   -4.5116    1.0000 </r>
       <r>   -4.4846    1.0000 </r>
       <r>   -4.4785    1.0000 </r>
       <r>   -4.4219    1.0000 </r>
       <r>   -4.4143    1.0000 </r>
       <r>   -4.3758    1.0000 </r>
       <r>   -4.2613    1.0000 </r>
       <r>   -4.2183    1.0000 </r>
       <r>   -4.2041    1.0000 </r>
       <r>   -4.1734    1.0000 </r>
       <r>   -4.1310    1.0000 </r>
       <r>   -4.1068    1.0000 </r>
       <r>   -4.0884    1.0000 </r>
       <r>   -4.0763    1.0000 </r>
       <r>   -4.0697    1.0000 </r>
       <r>   -4.0429    1.0000 </r>
       <r>   -4.0179    1.0000 </r>
       <r>   -4.0084    1.0000 </r>
       <r>   -3.9263    1.0000 </r>
       <r>   -3.9169    1.0000 </r>
       <r>   -3.8396    1.0000 </r>
       <r>   -3.8279    1.0000 </r>
       <r>   -3.8038    1.0000 </r>
       <r>   -3.7987    1.0000 </r>
       <r>   -3.7399    1.0000 </r>
       <r>   -3.7324    1.0000 </r>
       <r>   -3.7153    1.0000 </r>
       <r>   -3.6895    1.0000 </r>
       <r>   -3.6714    1.0000 </r>
       <r>   -3.6146    1.0000 </r>
       <r>   -3.6118    1.0000 </r>
       <r>   -3.6008    1.0000 </r>
       <r>   -3.5490    1.0000 </r>
       <r>   -3.5099    1.0000 </r>
       <r>   -3.5023    1.0000 </r>
       <r>   -3.4794    1.0000 </r>
       <r>   -3.4785    1.0000 </r>
       <r>   -3.4136    1.0000 </r>
       <r>   -3.3814    1.0000 </r>
       <r>   -3.3621    1.0000 </r>
       <r>   -3.3456    1.0000 </r>
       <r>   -3.3335    1.0000 </r>
       <r>   -3.3166    1.0000 </r>
       <r>   -3.3039    1.0000 </r>
       <r>   -3.2675    1.0000 </r>
       <r>   -3.2577    1.0000 </r>
       <r>   -3.2387    1.0000 </r>
       <r>   -3.2344    1.0000 </r>
       <r>   -3.2205    1.0000 </r>
       <r>   -3.2196    1.0000 </r>
       <r>   -3.1975    1.0000 </r>
       <r>   -3.1909    1.0000 </r>
       <r>   -3.1717    1.0000 </r>
       <r>   -3.1056    1.0000 </r>
       <r>   -3.0652    1.0000 </r>
       <r>   -3.0386    1.0000 </r>
       <r>   -3.0210    1.0000 </r>
       <r>   -3.0192    1.0000 </r>
       <r>   -3.0039    1.0000 </r>
       <r>   -2.9859    1.0000 </r>
       <r>   -2.9428    1.0000 </r>
       <r>   -2.9178    1.0000 </r>
       <r>   -2.8965    1.0000 </r>
       <r>   -2.8925    1.0000 </r>
       <r>   -2.8832    1.0000 </r>
       <r>   -2.8779    1.0000 </r>
       <r>   -2.8718    1.0000 </r>
       <r>   -2.8668    1.0000 </r>
       <r>   -2.8609    1.0000 </r>
       <r>   -2.8488    1.0000 </r>
       <r>   -2.8411    1.0000 </r>
       <r>   -2.8224    1.0000 </r>
       <r>   -2.8129    1.0000 </r>
       <r>   -2.8080    1.0000 </r>
       <r>   -2.7861    1.0000 </r>
       <r>   -2.7769    1.0000 </r>
       <r>   -2.7716    1.0000 </r>
       <r>   -2.7596    1.0000 </r>
       <r>   -2.7444    1.0000 </r>
       <r>   -2.7110    1.0000 </r>
       <r>   -2.7019    1.0000 </r>
       <r>   -2.6736    1.0000 </r>
       <r>   -2.6520    1.0000 </r>
       <r>   -2.6441    1.0000 </r>
       <r>   -2.5904    1.0000 </r>
       <r>   -2.5808    1.0000 </r>
       <r>   -2.5409    1.0000 </r>
       <r>   -2.5364    1.0000 </r>
       <r>   -2.5248    1.0000 </r>
       <r>   -2.5219    1.0000 </r>
       <r>   -2.5145    1.0000 </r>
       <r>   -2.5126    1.0000 </r>
       <r>   -2.4937    1.0000 </r>
       <r>   -2.4893    1.0000 </r>
       <r>   -2.4792    1.0000 </r>
       <r>   -2.4584    1.0000 </r>
       <r>   -2.4429    1.0000 </r>
       <r>   -2.4310    1.0000 </r>
       <r>   -2.4059    1.0000 </r>
       <r>   -2.4008    1.0000 </r>
       <r>   -2.3803    1.0000 </r>
       <r>   -2.3758    1.0000 </r>
       <r>   -2.3719    1.0000 </r>
       <r>   -2.3680    1.0000 </r>
       <r>   -2.3496    1.0000 </r>
       <r>   -2.3369    1.0000 </r>
       <r>   -2.3223    1.0000 </r>
       <r>   -2.3174    1.0000 </r>
       <r>   -2.2918    1.0000 </r>
       <r>   -2.2885    1.0000 </r>
       <r>   -2.2798    1.0000 </r>
       <r>   -2.2227    1.0000 </r>
       <r>   -2.1956    1.0000 </r>
       <r>   -2.1735    1.0000 </r>
       <r>   -2.1662    1.0000 </r>
       <r>   -2.1605    1.0000 </r>
       <r>   -2.1514    1.0000 </r>
       <r>   -2.1438    1.0000 </r>
       <r>   -2.1218    1.0000 </r>
       <r>   -2.1103    1.0000 </r>
       <r>   -2.1059    1.0000 </r>
       <r>   -2.1028    1.0000 </r>
       <r>   -2.0901    1.0000 </r>
       <r>   -2.0859    1.0000 </r>
       <r>   -2.0729    1.0000 </r>
       <r>   -2.0633    1.0000 </r>
       <r>   -2.0541    1.0000 </r>
       <r>   -2.0512    1.0000 </r>
       <r>   -2.0444    1.0000 </r>
       <r>   -2.0398    1.0000 </r>
       <r>   -2.0210    1.0000 </r>
       <r>   -2.0147    1.0000 </r>
       <r>   -1.9983    1.0000 </r>
       <r>   -1.9897    1.0000 </r>
       <r>   -1.9588    1.0000 </r>
       <r>   -1.9533    1.0000 </r>
       <r>   -1.9489    1.0000 </r>
       <r>   -1.9165    1.0000 </r>
       <r>   -1.9001    1.0000 </r>
       <r>   -1.8965    1.0000 </r>
       <r>   -1.8823    1.0000 </r>
       <r>   -1.8801    1.0000 </r>
       <r>   -1.8484    1.0000 </r>
       <r>   -1.8407    1.0000 </r>
       <r>   -1.8206    1.0000 </r>
       <r>   -1.8163    1.0000 </r>
       <r>   -1.8154    1.0000 </r>
       <r>   -1.8077    1.0000 </r>
       <r>   -1.7990    1.0000 </r>
       <r>   -1.7962    1.0000 </r>
       <r>   -1.7918    1.0000 </r>
       <r>   -1.7801    1.0000 </r>
       <r>   -1.7591    1.0000 </r>
       <r>   -1.7577    1.0000 </r>
       <r>   -1.7568    1.0000 </r>
       <r>   -1.7542    1.0000 </r>
       <r>   -1.7439    1.0000 </r>
       <r>   -1.7337    1.0000 </r>
       <r>   -1.7304    1.0000 </r>
       <r>   -1.7259    1.0000 </r>
       <r>   -1.7111    1.0000 </r>
       <r>   -1.6902    1.0000 </r>
       <r>   -1.6721    1.0000 </r>
       <r>   -1.6639    1.0000 </r>
       <r>   -1.6510    1.0000 </r>
       <r>   -1.6468    1.0000 </r>
       <r>   -1.6383    1.0000 </r>
       <r>   -1.6099    1.0000 </r>
       <r>   -1.5954    1.0000 </r>
       <r>   -1.5940    1.0000 </r>
       <r>   -1.5785    1.0000 </r>
       <r>   -1.5560    1.0000 </r>
       <r>   -1.5024    1.0000 </r>
       <r>   -1.4636    1.0000 </r>
       <r>   -1.4412    1.0000 </r>
       <r>   -1.3808    1.0000 </r>
       <r>   -1.3404    1.0000 </r>
       <r>   -1.2742    1.0000 </r>
       <r>   -1.2046    1.0000 </r>
       <r>   -0.8515    1.0000 </r>
       <r>   -0.7616    0.9999 </r>
       <r>   -0.6279    0.9978 </r>
       <r>   -0.4562    1.0036 </r>
       <r>   -0.0363    0.0724 </r>
       <r>    0.1501   -0.0179 </r>
       <r>    0.1601   -0.0138 </r>
       <r>    0.2394    0.0039 </r>
       <r>    0.3407    0.0030 </r>
       <r>    0.4831    0.0002 </r>
       <r>    0.6754    0.0000 </r>
       <r>    0.9148    0.0000 </r>
       <r>    1.1136    0.0000 </r>
       <r>    1.4901    0.0000 </r>
       <r>    1.6163    0.0000 </r>
       <r>    1.9040    0.0000 </r>
       <r>    1.9132    0.0000 </r>
       <r>    2.3788    0.0000 </r>
       <r>    2.4047    0.0000 </r>
       <r>    2.4985    0.0000 </r>
       <r>    2.5155    0.0000 </r>
       <r>    2.5821    0.0000 </r>
       <r>    2.6001    0.0000 </r>
       <r>    2.9255    0.0000 </r>
       <r>    3.0399    0.0000 </r>
       <r>    3.0482    0.0000 </r>
       <r>    3.1313    0.0000 </r>
       <r>    3.5789    0.0000 </r>
       <r>    3.5894    0.0000 </r>
       <r>    3.7505    0.0000 </r>
       <r>    3.9715    0.0000 </r>
       <r>    3.9941    0.0000 </r>
       <r>    4.0199    0.0000 </r>
       <r>    4.2332    0.0000 </r>
       <r>    4.3112    0.0000 </r>
       <r>    4.3690    0.0000 </r>
       <r>    4.3944    0.0000 </r>
       <r>    4.6557    0.0000 </r>
       <r>    4.8570    0.0000 </r>
       <r>    4.8767    0.0000 </r>
       <r>    5.0339    0.0000 </r>
       <r>    5.1722    0.0000 </r>
       <r>    5.3304    0.0000 </r>
       <r>    5.4066    0.0000 </r>
       <r>    5.4372    0.0000 </r>
       <r>    5.6483    0.0000 </r>
       <r>    5.9145    0.0000 </r>
      </set>
      <set comment="kpoint 3">
       <r>   -8.2182    1.0000 </r>
       <r>   -7.5901    1.0000 </r>
       <r>   -6.6967    1.0000 </r>
       <r>   -6.4299    1.0000 </r>
       <r>   -6.1448    1.0000 </r>
       <r>   -5.9091    1.0000 </r>
       <r>   -5.4915    1.0000 </r>
       <r>   -5.2246    1.0000 </r>
       <r>   -5.1003    1.0000 </r>
       <r>   -4.9572    1.0000 </r>
       <r>   -4.8624    1.0000 </r>
       <r>   -4.7920    1.0000 </r>
       <r>   -4.7658    1.0000 </r>
       <r>   -4.7546    1.0000 </r>
       <r>   -4.5116    1.0000 </r>
       <r>   -4.4845    1.0000 </r>
       <r>   -4.4787    1.0000 </r>
       <r>   -4.4217    1.0000 </r>
       <r>   -4.4140    1.0000 </r>
       <r>   -4.3764    1.0000 </r>
       <r>   -4.2613    1.0000 </r>
       <r>   -4.2183    1.0000 </r>
       <r>   -4.2040    1.0000 </r>
       <r>   -4.1733    1.0000 </r>
       <r>   -4.1309    1.0000 </r>
       <r>   -4.1070    1.0000 </r>
       <r>   -4.0883    1.0000 </r>
       <r>   -4.0764    1.0000 </r>
       <r>   -4.0693    1.0000 </r>
       <r>   -4.0432    1.0000 </r>
       <r>   -4.0181    1.0000 </r>
       <r>   -4.0080    1.0000 </r>
       <r>   -3.9268    1.0000 </r>
       <r>   -3.9164    1.0000 </r>
       <r>   -3.8397    1.0000 </r>
       <r>   -3.8281    1.0000 </r>
       <r>   -3.8037    1.0000 </r>
       <r>   -3.7986    1.0000 </r>
       <r>   -3.7403    1.0000 </r>
       <r>   -3.7327    1.0000 </r>
       <r>   -3.7151    1.0000 </r>
       <r>   -3.6888    1.0000 </r>
       <r>   -3.6717    1.0000 </r>
       <r>   -3.6145    1.0000 </r>
       <r>   -3.6117    1.0000 </r>
       <r>   -3.6008    1.0000 </r>
       <r>   -3.5492    1.0000 </r>
       <r>   -3.5102    1.0000 </r>
       <r>   -3.5024    1.0000 </r>
       <r>   -3.4791    1.0000 </r>
       <r>   -3.4783    1.0000 </r>
       <r>   -3.4140    1.0000 </r>
       <r>   -3.3819    1.0000 </r>
       <r>   -3.3618    1.0000 </r>
       <r>   -3.3455    1.0000 </r>
       <r>   -3.3336    1.0000 </r>
       <r>   -3.3164    1.0000 </r>
       <r>   -3.3037    1.0000 </r>
       <r>   -3.2678    1.0000 </r>
       <r>   -3.2578    1.0000 </r>
       <r>   -3.2385    1.0000 </r>
       <r>   -3.2337    1.0000 </r>
       <r>   -3.2210    1.0000 </r>
       <r>   -3.2197    1.0000 </r>
       <r>   -3.1974    1.0000 </r>
       <r>   -3.1910    1.0000 </r>
       <r>   -3.1714    1.0000 </r>
       <r>   -3.1053    1.0000 </r>
       <r>   -3.0651    1.0000 </r>
       <r>   -3.0384    1.0000 </r>
       <r>   -3.0212    1.0000 </r>
       <r>   -3.0192    1.0000 </r>
       <r>   -3.0040    1.0000 </r>
       <r>   -2.9857    1.0000 </r>
       <r>   -2.9431    1.0000 </r>
       <r>   -2.9177    1.0000 </r>
       <r>   -2.8969    1.0000 </r>
       <r>   -2.8923    1.0000 </r>
       <r>   -2.8823    1.0000 </r>
       <r>   -2.8782    1.0000 </r>
       <r>   -2.8727    1.0000 </r>
       <r>   -2.8675    1.0000 </r>
       <r>   -2.8620    1.0000 </r>
       <r>   -2.8473    1.0000 </r>
       <r>   -2.8407    1.0000 </r>
       <r>   -2.8219    1.0000 </r>
       <r>   -2.8125    1.0000 </r>
       <r>   -2.8084    1.0000 </r>
       <r>   -2.7866    1.0000 </r>
       <r>   -2.7763    1.0000 </r>
       <r>   -2.7713    1.0000 </r>
       <r>   -2.7598    1.0000 </r>
       <r>   -2.7447    1.0000 </r>
       <r>   -2.7113    1.0000 </r>
       <r>   -2.7020    1.0000 </r>
       <r>   -2.6735    1.0000 </r>
       <r>   -2.6521    1.0000 </r>
       <r>   -2.6437    1.0000 </r>
       <r>   -2.5904    1.0000 </r>
       <r>   -2.5811    1.0000 </r>
       <r>   -2.5411    1.0000 </r>
       <r>   -2.5368    1.0000 </r>
       <r>   -2.5236    1.0000 </r>
       <r>   -2.5216    1.0000 </r>
       <r>   -2.5146    1.0000 </r>
       <r>   -2.5133    1.0000 </r>
       <r>   -2.4942    1.0000 </r>
       <r>   -2.4880    1.0000 </r>
       <r>   -2.4789    1.0000 </r>
       <r>   -2.4586    1.0000 </r>
       <r>   -2.4436    1.0000 </r>
       <r>   -2.4309    1.0000 </r>
       <r>   -2.4066    1.0000 </r>
       <r>   -2.4010    1.0000 </r>
       <r>   -2.3800    1.0000 </r>
       <r>   -2.3759    1.0000 </r>
       <r>   -2.3723    1.0000 </r>
       <r>   -2.3672    1.0000 </r>
       <r>   -2.3501    1.0000 </r>
       <r>   -2.3369    1.0000 </r>
       <r>   -2.3226    1.0000 </r>
       <r>   -2.3166    1.0000 </r>
       <r>   -2.2921    1.0000 </r>
       <r>   -2.2881    1.0000 </r>
       <r>   -2.2798    1.0000 </r>
       <r>   -2.2228    1.0000 </r>
       <r>   -2.1958    1.0000 </r>
       <r>   -2.1736    1.0000 </r>
       <r>   -2.1663    1.0000 </r>
       <r>   -2.1605    1.0000 </r>
       <r>   -2.1503    1.0000 </r>
       <r>   -2.1437    1.0000 </r>
       <r>   -2.1225    1.0000 </r>
       <r>   -2.1092    1.0000 </r>
       <r>   -2.1050    1.0000 </r>
       <r>   -2.1026    1.0000 </r>
       <r>   -2.0908    1.0000 </r>
       <r>   -2.0864    1.0000 </r>
       <r>   -2.0745    1.0000 </r>
       <r>   -2.0634    1.0000 </r>
       <r>   -2.0537    1.0000 </r>
       <r>   -2.0505    1.0000 </r>
       <r>   -2.0447    1.0000 </r>
       <r>   -2.0406    1.0000 </r>
       <r>   -2.0210    1.0000 </r>
       <r>   -2.0142    1.0000 </r>
       <r>   -1.9982    1.0000 </r>
       <r>   -1.9900    1.0000 </r>
       <r>   -1.9583    1.0000 </r>
       <r>   -1.9529    1.0000 </r>
       <r>   -1.9491    1.0000 </r>
       <r>   -1.9169    1.0000 </r>
       <r>   -1.9007    1.0000 </r>
       <r>   -1.8961    1.0000 </r>
       <r>   -1.8821    1.0000 </r>
       <r>   -1.8801    1.0000 </r>
       <r>   -1.8487    1.0000 </r>
       <r>   -1.8406    1.0000 </r>
       <r>   -1.8207    1.0000 </r>
       <r>   -1.8165    1.0000 </r>
       <r>   -1.8153    1.0000 </r>
       <r>   -1.8078    1.0000 </r>
       <r>   -1.7991    1.0000 </r>
       <r>   -1.7960    1.0000 </r>
       <r>   -1.7916    1.0000 </r>
       <r>   -1.7806    1.0000 </r>
       <r>   -1.7587    1.0000 </r>
       <r>   -1.7578    1.0000 </r>
       <r>   -1.7567    1.0000 </r>
       <r>   -1.7541    1.0000 </r>
       <r>   -1.7439    1.0000 </r>
       <r>   -1.7336    1.0000 </r>
       <r>   -1.7303    1.0000 </r>
       <r>   -1.7262    1.0000 </r>
       <r>   -1.7109    1.0000 </r>
       <r>   -1.6902    1.0000 </r>
       <r>   -1.6721    1.0000 </r>
       <r>   -1.6642    1.0000 </r>
       <r>   -1.6506    1.0000 </r>
       <r>   -1.6468    1.0000 </r>
       <r>   -1.6386    1.0000 </r>
       <r>   -1.6100    1.0000 </r>
       <r>   -1.5952    1.0000 </r>
       <r>   -1.5942    1.0000 </r>
       <r>   -1.5787    1.0000 </r>
       <r>   -1.5550    1.0000 </r>
       <r>   -1.5029    1.0000 </r>
       <r>   -1.4635    1.0000 </r>
       <r>   -1.4412    1.0000 </r>
       <r>   -1.3807    1.0000 </r>
       <r>   -1.3404    1.0000 </r>
       <r>   -1.2742    1.0000 </r>
       <r>   -1.2046    1.0000 </r>
       <r>   -0.8515    1.0000 </r>
       <r>   -0.7616    0.9999 </r>
       <r>   -0.6279    0.9978 </r>
       <r>   -0.4562    1.0036 </r>
       <r>   -0.0363    0.0723 </r>
       <r>    0.1506   -0.0177 </r>
       <r>    0.1598   -0.0138 </r>
       <r>    0.2391    0.0039 </r>
       <r>    0.3407    0.0030 </r>
       <r>    0.4831    0.0002 </r>
       <r>    0.6754    0.0000 </r>
       <r>    0.9148    0.0000 </r>
       <r>    1.1136    0.0000 </r>
       <r>    1.4897    0.0000 </r>
       <r>    1.6164    0.0000 </r>
       <r>    1.9044    0.0000 </r>
       <r>    1.9132    0.0000 </r>
       <r>    2.3789    0.0000 </r>
       <r>    2.4047    0.0000 </r>
       <r>    2.4986    0.0000 </r>
       <r>    2.5158    0.0000 </r>
       <r>    2.5823    0.0000 </r>
       <r>    2.5995    0.0000 </r>
       <r>    2.9274    0.0000 </r>
       <r>    3.0415    0.0000 </r>
       <r>    3.0442    0.0000 </r>
       <r>    3.1314    0.0000 </r>
       <r>    3.5785    0.0000 </r>
       <r>    3.5899    0.0000 </r>
       <r>    3.7509    0.0000 </r>
       <r>    3.9712    0.0000 </r>
       <r>    3.9941    0.0000 </r>
       <r>    4.0198    0.0000 </r>
       <r>    4.2338    0.0000 </r>
       <r>    4.3105    0.0000 </r>
       <r>    4.3661    0.0000 </r>
       <r>    4.3944    0.0000 </r>
       <r>    4.6557    0.0000 </r>
       <r>    4.8567    0.0000 </r>
       <r>    4.8765    0.0000 </r>
       <r>    5.0339    0.0000 </r>
       <r>    5.1717    0.0000 </r>
       <r>    5.3315    0.0000 </r>
       <r>    5.4032    0.0000 </r>
       <r>    5.4381    0.0000 </r>
       <r>    5.6232    0.0000 </r>
       <r>    5.7419    0.0000 </r>
      </set>
      <set comment="kpoint 4">
       <r>   -8.5428    1.0000 </r>
       <r>   -6.9964    1.0000 </r>
       <r>   -6.7177    1.0000 </r>
       <r>   -6.7129    1.0000 </r>
       <r>   -5.7337    1.0000 </r>
       <r>   -5.7286    1.0000 </r>
       <r>   -5.4827    1.0000 </r>
       <r>   -5.4740    1.0000 </r>
       <r>   -5.2809    1.0000 </r>
       <r>   -5.1019    1.0000 </r>
       <r>   -4.9695    1.0000 </r>
       <r>   -4.9616    1.0000 </r>
       <r>   -4.7495    1.0000 </r>
       <r>   -4.7480    1.0000 </r>
       <r>   -4.6496    1.0000 </r>
       <r>   -4.5678    1.0000 </r>
       <r>   -4.3500    1.0000 </r>
       <r>   -4.3238    1.0000 </r>
       <r>   -4.3138    1.0000 </r>
       <r>   -4.2933    1.0000 </r>
       <r>   -4.2860    1.0000 </r>
       <r>   -4.2405    1.0000 </r>
       <r>   -4.1700    1.0000 </r>
       <r>   -4.1109    1.0000 </r>
       <r>   -4.1093    1.0000 </r>
       <r>   -4.0479    1.0000 </r>
       <r>   -4.0345    1.0000 </r>
       <r>   -4.0308    1.0000 </r>
       <r>   -3.9957    1.0000 </r>
       <r>   -3.9904    1.0000 </r>
       <r>   -3.9851    1.0000 </r>
       <r>   -3.9750    1.0000 </r>
       <r>   -3.9682    1.0000 </r>
       <r>   -3.9002    1.0000 </r>
       <r>   -3.8941    1.0000 </r>
       <r>   -3.8908    1.0000 </r>
       <r>   -3.8850    1.0000 </r>
       <r>   -3.8758    1.0000 </r>
       <r>   -3.7952    1.0000 </r>
       <r>   -3.7914    1.0000 </r>
       <r>   -3.7436    1.0000 </r>
       <r>   -3.7274    1.0000 </r>
       <r>   -3.7028    1.0000 </r>
       <r>   -3.6963    1.0000 </r>
       <r>   -3.6095    1.0000 </r>
       <r>   -3.4982    1.0000 </r>
       <r>   -3.4958    1.0000 </r>
       <r>   -3.4856    1.0000 </r>
       <r>   -3.4789    1.0000 </r>
       <r>   -3.4463    1.0000 </r>
       <r>   -3.4190    1.0000 </r>
       <r>   -3.3985    1.0000 </r>
       <r>   -3.3914    1.0000 </r>
       <r>   -3.3889    1.0000 </r>
       <r>   -3.3475    1.0000 </r>
       <r>   -3.2813    1.0000 </r>
       <r>   -3.2794    1.0000 </r>
       <r>   -3.2598    1.0000 </r>
       <r>   -3.2185    1.0000 </r>
       <r>   -3.2152    1.0000 </r>
       <r>   -3.2125    1.0000 </r>
       <r>   -3.1896    1.0000 </r>
       <r>   -3.1680    1.0000 </r>
       <r>   -3.1624    1.0000 </r>
       <r>   -3.1595    1.0000 </r>
       <r>   -3.1423    1.0000 </r>
       <r>   -3.1353    1.0000 </r>
       <r>   -3.1303    1.0000 </r>
       <r>   -3.0796    1.0000 </r>
       <r>   -3.0767    1.0000 </r>
       <r>   -3.0718    1.0000 </r>
       <r>   -2.9744    1.0000 </r>
       <r>   -2.9652    1.0000 </r>
       <r>   -2.9538    1.0000 </r>
       <r>   -2.9477    1.0000 </r>
       <r>   -2.9198    1.0000 </r>
       <r>   -2.9065    1.0000 </r>
       <r>   -2.9005    1.0000 </r>
       <r>   -2.8663    1.0000 </r>
       <r>   -2.8599    1.0000 </r>
       <r>   -2.8534    1.0000 </r>
       <r>   -2.8423    1.0000 </r>
       <r>   -2.8404    1.0000 </r>
       <r>   -2.8333    1.0000 </r>
       <r>   -2.8167    1.0000 </r>
       <r>   -2.8127    1.0000 </r>
       <r>   -2.8071    1.0000 </r>
       <r>   -2.8026    1.0000 </r>
       <r>   -2.8000    1.0000 </r>
       <r>   -2.7892    1.0000 </r>
       <r>   -2.7809    1.0000 </r>
       <r>   -2.7723    1.0000 </r>
       <r>   -2.7616    1.0000 </r>
       <r>   -2.7486    1.0000 </r>
       <r>   -2.7333    1.0000 </r>
       <r>   -2.7299    1.0000 </r>
       <r>   -2.6836    1.0000 </r>
       <r>   -2.6801    1.0000 </r>
       <r>   -2.6355    1.0000 </r>
       <r>   -2.5816    1.0000 </r>
       <r>   -2.5793    1.0000 </r>
       <r>   -2.5468    1.0000 </r>
       <r>   -2.5416    1.0000 </r>
       <r>   -2.4388    1.0000 </r>
       <r>   -2.4271    1.0000 </r>
       <r>   -2.4193    1.0000 </r>
       <r>   -2.4182    1.0000 </r>
       <r>   -2.3883    1.0000 </r>
       <r>   -2.3813    1.0000 </r>
       <r>   -2.3703    1.0000 </r>
       <r>   -2.3640    1.0000 </r>
       <r>   -2.3509    1.0000 </r>
       <r>   -2.3231    1.0000 </r>
       <r>   -2.3191    1.0000 </r>
       <r>   -2.3185    1.0000 </r>
       <r>   -2.3143    1.0000 </r>
       <r>   -2.2957    1.0000 </r>
       <r>   -2.2868    1.0000 </r>
       <r>   -2.2828    1.0000 </r>
       <r>   -2.2798    1.0000 </r>
       <r>   -2.2664    1.0000 </r>
       <r>   -2.2612    1.0000 </r>
       <r>   -2.2392    1.0000 </r>
       <r>   -2.2208    1.0000 </r>
       <r>   -2.2129    1.0000 </r>
       <r>   -2.2098    1.0000 </r>
       <r>   -2.2055    1.0000 </r>
       <r>   -2.1921    1.0000 </r>
       <r>   -2.1905    1.0000 </r>
       <r>   -2.1854    1.0000 </r>
       <r>   -2.1827    1.0000 </r>
       <r>   -2.1785    1.0000 </r>
       <r>   -2.1747    1.0000 </r>
       <r>   -2.1729    1.0000 </r>
       <r>   -2.1638    1.0000 </r>
       <r>   -2.1608    1.0000 </r>
       <r>   -2.1123    1.0000 </r>
       <r>   -2.0955    1.0000 </r>
       <r>   -2.0621    1.0000 </r>
       <r>   -2.0377    1.0000 </r>
       <r>   -2.0283    1.0000 </r>
       <r>   -2.0223    1.0000 </r>
       <r>   -2.0063    1.0000 </r>
       <r>   -1.9977    1.0000 </r>
       <r>   -1.9955    1.0000 </r>
       <r>   -1.9920    1.0000 </r>
       <r>   -1.9815    1.0000 </r>
       <r>   -1.9795    1.0000 </r>
       <r>   -1.9778    1.0000 </r>
       <r>   -1.9769    1.0000 </r>
       <r>   -1.9451    1.0000 </r>
       <r>   -1.9435    1.0000 </r>
       <r>   -1.8957    1.0000 </r>
       <r>   -1.8638    1.0000 </r>
       <r>   -1.8621    1.0000 </r>
       <r>   -1.8539    1.0000 </r>
       <r>   -1.8512    1.0000 </r>
       <r>   -1.8419    1.0000 </r>
       <r>   -1.8373    1.0000 </r>
       <r>   -1.8276    1.0000 </r>
       <r>   -1.8211    1.0000 </r>
       <r>   -1.8191    1.0000 </r>
       <r>   -1.8171    1.0000 </r>
       <r>   -1.8164    1.0000 </r>
       <r>   -1.8153    1.0000 </r>
       <r>   -1.8070    1.0000 </r>
       <r>   -1.8024    1.0000 </r>
       <r>   -1.8010    1.0000 </r>
       <r>   -1.7772    1.0000 </r>
       <r>   -1.7759    1.0000 </r>
       <r>   -1.7401    1.0000 </r>
       <r>   -1.7370    1.0000 </r>
       <r>   -1.7361    1.0000 </r>
       <r>   -1.7313    1.0000 </r>
       <r>   -1.7276    1.0000 </r>
       <r>   -1.6896    1.0000 </r>
       <r>   -1.6550    1.0000 </r>
       <r>   -1.6531    1.0000 </r>
       <r>   -1.6526    1.0000 </r>
       <r>   -1.6512    1.0000 </r>
       <r>   -1.6425    1.0000 </r>
       <r>   -1.6358    1.0000 </r>
       <r>   -1.6344    1.0000 </r>
       <r>   -1.6217    1.0000 </r>
       <r>   -1.6022    1.0000 </r>
       <r>   -1.5912    1.0000 </r>
       <r>   -1.5898    1.0000 </r>
       <r>   -1.5888    1.0000 </r>
       <r>   -1.5819    1.0000 </r>
       <r>   -1.5791    1.0000 </r>
       <r>   -1.5772    1.0000 </r>
       <r>   -1.5300    1.0000 </r>
       <r>   -1.1087    1.0000 </r>
       <r>   -1.1052    1.0000 </r>
       <r>   -0.8498    1.0000 </r>
       <r>   -0.8484    1.0000 </r>
       <r>   -0.7706    0.9999 </r>
       <r>   -0.5011    0.9963 </r>
       <r>   -0.3843    1.0322 </r>
       <r>   -0.1570    0.6284 </r>
       <r>   -0.1526    0.6060 </r>
       <r>    0.1161   -0.0337 </r>
       <r>    0.1219   -0.0310 </r>
       <r>    0.9769    0.0000 </r>
       <r>    1.0498    0.0000 </r>
       <r>    1.1632    0.0000 </r>
       <r>    1.5397    0.0000 </r>
       <r>    1.5464    0.0000 </r>
       <r>    1.9856    0.0000 </r>
       <r>    1.9884    0.0000 </r>
       <r>    2.0528    0.0000 </r>
       <r>    2.0860    0.0000 </r>
       <r>    2.1003    0.0000 </r>
       <r>    3.3015    0.0000 </r>
       <r>    3.3567    0.0000 </r>
       <r>    3.3632    0.0000 </r>
       <r>    3.4282    0.0000 </r>
       <r>    3.4974    0.0000 </r>
       <r>    3.6160    0.0000 </r>
       <r>    3.6216    0.0000 </r>
       <r>    3.8470    0.0000 </r>
       <r>    3.8892    0.0000 </r>
       <r>    3.8931    0.0000 </r>
       <r>    4.0144    0.0000 </r>
       <r>    4.0230    0.0000 </r>
       <r>    4.0360    0.0000 </r>
       <r>    4.0340    0.0000 </r>
       <r>    4.7356    0.0000 </r>
       <r>    4.7375    0.0000 </r>
       <r>    5.0367    0.0000 </r>
       <r>    5.0395    0.0000 </r>
       <r>    5.1179    0.0000 </r>
       <r>    5.1210    0.0000 </r>
       <r>    5.2644    0.0000 </r>
       <r>    5.3986    0.0000 </r>
       <r>    5.4796    0.0000 </r>
       <r>    5.4958    0.0000 </r>
       <r>    5.5014    0.0000 </r>
       <r>    5.5558    0.0000 </r>
       <r>    5.6323    0.0000 </r>
      </set>
      <set comment="kpoint 5">
       <r>   -8.2184    1.0000 </r>
       <r>   -7.5903    1.0000 </r>
       <r>   -6.6955    1.0000 </r>
       <r>   -6.4313    1.0000 </r>
       <r>   -6.1427    1.0000 </r>
       <r>   -5.9104    1.0000 </r>
       <r>   -5.4921    1.0000 </r>
       <r>   -5.2250    1.0000 </r>
       <r>   -5.1007    1.0000 </r>
       <r>   -4.9574    1.0000 </r>
       <r>   -4.8626    1.0000 </r>
       <r>   -4.7924    1.0000 </r>
       <r>   -4.7635    1.0000 </r>
       <r>   -4.7559    1.0000 </r>
       <r>   -4.5125    1.0000 </r>
       <r>   -4.4844    1.0000 </r>
       <r>   -4.4780    1.0000 </r>
       <r>   -4.4230    1.0000 </r>
       <r>   -4.4151    1.0000 </r>
       <r>   -4.3746    1.0000 </r>
       <r>   -4.2640    1.0000 </r>
       <r>   -4.2138    1.0000 </r>
       <r>   -4.2037    1.0000 </r>
       <r>   -4.1678    1.0000 </r>
       <r>   -4.1368    1.0000 </r>
       <r>   -4.0990    1.0000 </r>
       <r>   -4.0891    1.0000 </r>
       <r>   -4.0802    1.0000 </r>
       <r>   -4.0677    1.0000 </r>
       <r>   -4.0400    1.0000 </r>
       <r>   -4.0206    1.0000 </r>
       <r>   -4.0144    1.0000 </r>
       <r>   -3.9241    1.0000 </r>
       <r>   -3.9175    1.0000 </r>
       <r>   -3.8414    1.0000 </r>
       <r>   -3.8303    1.0000 </r>
       <r>   -3.8059    1.0000 </r>
       <r>   -3.7961    1.0000 </r>
       <r>   -3.7363    1.0000 </r>
       <r>   -3.7319    1.0000 </r>
       <r>   -3.7171    1.0000 </r>
       <r>   -3.6887    1.0000 </r>
       <r>   -3.6794    1.0000 </r>
       <r>   -3.6135    1.0000 </r>
       <r>   -3.6105    1.0000 </r>
       <r>   -3.5986    1.0000 </r>
       <r>   -3.5451    1.0000 </r>
       <r>   -3.5068    1.0000 </r>
       <r>   -3.5018    1.0000 </r>
       <r>   -3.4840    1.0000 </r>
       <r>   -3.4785    1.0000 </r>
       <r>   -3.4160    1.0000 </r>
       <r>   -3.3752    1.0000 </r>
       <r>   -3.3669    1.0000 </r>
       <r>   -3.3516    1.0000 </r>
       <r>   -3.3282    1.0000 </r>
       <r>   -3.3200    1.0000 </r>
       <r>   -3.3068    1.0000 </r>
       <r>   -3.2599    1.0000 </r>
       <r>   -3.2546    1.0000 </r>
       <r>   -3.2384    1.0000 </r>
       <r>   -3.2334    1.0000 </r>
       <r>   -3.2210    1.0000 </r>
       <r>   -3.2128    1.0000 </r>
       <r>   -3.2022    1.0000 </r>
       <r>   -3.1947    1.0000 </r>
       <r>   -3.1789    1.0000 </r>
       <r>   -3.1046    1.0000 </r>
       <r>   -3.0654    1.0000 </r>
       <r>   -3.0346    1.0000 </r>
       <r>   -3.0255    1.0000 </r>
       <r>   -3.0208    1.0000 </r>
       <r>   -3.0014    1.0000 </r>
       <r>   -2.9886    1.0000 </r>
       <r>   -2.9417    1.0000 </r>
       <r>   -2.9200    1.0000 </r>
       <r>   -2.8959    1.0000 </r>
       <r>   -2.8890    1.0000 </r>
       <r>   -2.8804    1.0000 </r>
       <r>   -2.8774    1.0000 </r>
       <r>   -2.8712    1.0000 </r>
       <r>   -2.8675    1.0000 </r>
       <r>   -2.8585    1.0000 </r>
       <r>   -2.8547    1.0000 </r>
       <r>   -2.8399    1.0000 </r>
       <r>   -2.8258    1.0000 </r>
       <r>   -2.8110    1.0000 </r>
       <r>   -2.8097    1.0000 </r>
       <r>   -2.7862    1.0000 </r>
       <r>   -2.7769    1.0000 </r>
       <r>   -2.7739    1.0000 </r>
       <r>   -2.7522    1.0000 </r>
       <r>   -2.7457    1.0000 </r>
       <r>   -2.7117    1.0000 </r>
       <r>   -2.7038    1.0000 </r>
       <r>   -2.6768    1.0000 </r>
       <r>   -2.6503    1.0000 </r>
       <r>   -2.6472    1.0000 </r>
       <r>   -2.5893    1.0000 </r>
       <r>   -2.5756    1.0000 </r>
       <r>   -2.5426    1.0000 </r>
       <r>   -2.5381    1.0000 </r>
       <r>   -2.5265    1.0000 </r>
       <r>   -2.5199    1.0000 </r>
       <r>   -2.5148    1.0000 </r>
       <r>   -2.5110    1.0000 </r>
       <r>   -2.4938    1.0000 </r>
       <r>   -2.4887    1.0000 </r>
       <r>   -2.4754    1.0000 </r>
       <r>   -2.4590    1.0000 </r>
       <r>   -2.4494    1.0000 </r>
       <r>   -2.4331    1.0000 </r>
       <r>   -2.4028    1.0000 </r>
       <r>   -2.3876    1.0000 </r>
       <r>   -2.3856    1.0000 </r>
       <r>   -2.3787    1.0000 </r>
       <r>   -2.3757    1.0000 </r>
       <r>   -2.3692    1.0000 </r>
       <r>   -2.3443    1.0000 </r>
       <r>   -2.3369    1.0000 </r>
       <r>   -2.3229    1.0000 </r>
       <r>   -2.3044    1.0000 </r>
       <r>   -2.2966    1.0000 </r>
       <r>   -2.2890    1.0000 </r>
       <r>   -2.2815    1.0000 </r>
       <r>   -2.2217    1.0000 </r>
       <r>   -2.1919    1.0000 </r>
       <r>   -2.1756    1.0000 </r>
       <r>   -2.1666    1.0000 </r>
       <r>   -2.1603    1.0000 </r>
       <r>   -2.1521    1.0000 </r>
       <r>   -2.1424    1.0000 </r>
       <r>   -2.1217    1.0000 </r>
       <r>   -2.1112    1.0000 </r>
       <r>   -2.1029    1.0000 </r>
       <r>   -2.0992    1.0000 </r>
       <r>   -2.0903    1.0000 </r>
       <r>   -2.0876    1.0000 </r>
       <r>   -2.0714    1.0000 </r>
       <r>   -2.0614    1.0000 </r>
       <r>   -2.0568    1.0000 </r>
       <r>   -2.0557    1.0000 </r>
       <r>   -2.0410    1.0000 </r>
       <r>   -2.0404    1.0000 </r>
       <r>   -2.0188    1.0000 </r>
       <r>   -2.0159    1.0000 </r>
       <r>   -1.9984    1.0000 </r>
       <r>   -1.9892    1.0000 </r>
       <r>   -1.9605    1.0000 </r>
       <r>   -1.9545    1.0000 </r>
       <r>   -1.9497    1.0000 </r>
       <r>   -1.9161    1.0000 </r>
       <r>   -1.8995    1.0000 </r>
       <r>   -1.8940    1.0000 </r>
       <r>   -1.8834    1.0000 </r>
       <r>   -1.8801    1.0000 </r>
       <r>   -1.8467    1.0000 </r>
       <r>   -1.8397    1.0000 </r>
       <r>   -1.8176    1.0000 </r>
       <r>   -1.8167    1.0000 </r>
       <r>   -1.8158    1.0000 </r>
       <r>   -1.8073    1.0000 </r>
       <r>   -1.8010    1.0000 </r>
       <r>   -1.7970    1.0000 </r>
       <r>   -1.7940    1.0000 </r>
       <r>   -1.7805    1.0000 </r>
       <r>   -1.7613    1.0000 </r>
       <r>   -1.7584    1.0000 </r>
       <r>   -1.7565    1.0000 </r>
       <r>   -1.7547    1.0000 </r>
       <r>   -1.7450    1.0000 </r>
       <r>   -1.7318    1.0000 </r>
       <r>   -1.7297    1.0000 </r>
       <r>   -1.7263    1.0000 </r>
       <r>   -1.7115    1.0000 </r>
       <r>   -1.6905    1.0000 </r>
       <r>   -1.6731    1.0000 </r>
       <r>   -1.6618    1.0000 </r>
       <r>   -1.6519    1.0000 </r>
       <r>   -1.6478    1.0000 </r>
       <r>   -1.6383    1.0000 </r>
       <r>   -1.6090    1.0000 </r>
       <r>   -1.5953    1.0000 </r>
       <r>   -1.5937    1.0000 </r>
       <r>   -1.5782    1.0000 </r>
       <r>   -1.5548    1.0000 </r>
       <r>   -1.5043    1.0000 </r>
       <r>   -1.4645    1.0000 </r>
       <r>   -1.4425    1.0000 </r>
       <r>   -1.3810    1.0000 </r>
       <r>   -1.3409    1.0000 </r>
       <r>   -1.2748    1.0000 </r>
       <r>   -1.2055    1.0000 </r>
       <r>   -0.8527    1.0000 </r>
       <r>   -0.7629    0.9999 </r>
       <r>   -0.6284    0.9978 </r>
       <r>   -0.4566    1.0035 </r>
       <r>   -0.0372    0.0752 </r>
       <r>    0.1501   -0.0179 </r>
       <r>    0.1616   -0.0132 </r>
       <r>    0.2379    0.0038 </r>
       <r>    0.3390    0.0031 </r>
       <r>    0.4807    0.0002 </r>
       <r>    0.6777    0.0000 </r>
       <r>    0.9148    0.0000 </r>
       <r>    1.1128    0.0000 </r>
       <r>    1.4895    0.0000 </r>
       <r>    1.6192    0.0000 </r>
       <r>    1.9002    0.0000 </r>
       <r>    1.9166    0.0000 </r>
       <r>    2.3788    0.0000 </r>
       <r>    2.4023    0.0000 </r>
       <r>    2.4984    0.0000 </r>
       <r>    2.5230    0.0000 </r>
       <r>    2.5768    0.0000 </r>
       <r>    2.6004    0.0000 </r>
       <r>    2.9283    0.0000 </r>
       <r>    3.0422    0.0000 </r>
       <r>    3.0432    0.0000 </r>
       <r>    3.1313    0.0000 </r>
       <r>    3.5798    0.0000 </r>
       <r>    3.5901    0.0000 </r>
       <r>    3.7502    0.0000 </r>
       <r>    3.9697    0.0000 </r>
       <r>    3.9962    0.0000 </r>
       <r>    4.0179    0.0000 </r>
       <r>    4.2347    0.0000 </r>
       <r>    4.3135    0.0000 </r>
       <r>    4.3615    0.0000 </r>
       <r>    4.3942    0.0000 </r>
       <r>    4.6575    0.0000 </r>
       <r>    4.8568    0.0000 </r>
       <r>    4.8786    0.0000 </r>
       <r>    5.0329    0.0000 </r>
       <r>    5.1727    0.0000 </r>
       <r>    5.3312    0.0000 </r>
       <r>    5.4025    0.0000 </r>
       <r>    5.4318    0.0000 </r>
       <r>    5.6937    0.0000 </r>
       <r>    5.8006    0.0000 </r>
      </set>
      <set comment="kpoint 6">
       <r>   -7.8983    1.0000 </r>
       <r>   -7.2849    1.0000 </r>
       <r>   -7.2780    1.0000 </r>
       <r>   -6.6941    1.0000 </r>
       <r>   -6.4005    1.0000 </r>
       <r>   -5.8655    1.0000 </r>
       <r>   -5.8569    1.0000 </r>
       <r>   -5.3567    1.0000 </r>
       <r>   -4.7701    1.0000 </r>
       <r>   -4.7631    1.0000 </r>
       <r>   -4.6283    1.0000 </r>
       <r>   -4.5874    1.0000 </r>
       <r>   -4.5790    1.0000 </r>
       <r>   -4.5337    1.0000 </r>
       <r>   -4.5068    1.0000 </r>
       <r>   -4.5032    1.0000 </r>
       <r>   -4.4777    1.0000 </r>
       <r>   -4.3268    1.0000 </r>
       <r>   -4.3108    1.0000 </r>
       <r>   -4.3063    1.0000 </r>
       <r>   -4.2890    1.0000 </r>
       <r>   -4.2843    1.0000 </r>
       <r>   -4.1641    1.0000 </r>
       <r>   -4.1610    1.0000 </r>
       <r>   -4.1314    1.0000 </r>
       <r>   -4.1245    1.0000 </r>
       <r>   -4.0943    1.0000 </r>
       <r>   -4.0879    1.0000 </r>
       <r>   -4.0773    1.0000 </r>
       <r>   -4.0746    1.0000 </r>
       <r>   -4.0057    1.0000 </r>
       <r>   -3.9848    1.0000 </r>
       <r>   -3.9821    1.0000 </r>
       <r>   -3.9772    1.0000 </r>
       <r>   -3.9317    1.0000 </r>
       <r>   -3.9271    1.0000 </r>
       <r>   -3.9073    1.0000 </r>
       <r>   -3.8479    1.0000 </r>
       <r>   -3.8451    1.0000 </r>
       <r>   -3.8390    1.0000 </r>
       <r>   -3.7980    1.0000 </r>
       <r>   -3.6709    1.0000 </r>
       <r>   -3.6330    1.0000 </r>
       <r>   -3.5940    1.0000 </r>
       <r>   -3.5908    1.0000 </r>
       <r>   -3.5300    1.0000 </r>
       <r>   -3.5193    1.0000 </r>
       <r>   -3.5050    1.0000 </r>
       <r>   -3.4990    1.0000 </r>
       <r>   -3.4921    1.0000 </r>
       <r>   -3.4772    1.0000 </r>
       <r>   -3.4709    1.0000 </r>
       <r>   -3.4371    1.0000 </r>
       <r>   -3.4283    1.0000 </r>
       <r>   -3.3984    1.0000 </r>
       <r>   -3.3115    1.0000 </r>
       <r>   -3.3027    1.0000 </r>
       <r>   -3.2953    1.0000 </r>
       <r>   -3.2879    1.0000 </r>
       <r>   -3.2501    1.0000 </r>
       <r>   -3.2427    1.0000 </r>
       <r>   -3.2048    1.0000 </r>
       <r>   -3.2026    1.0000 </r>
       <r>   -3.1675    1.0000 </r>
       <r>   -3.1591    1.0000 </r>
       <r>   -3.1398    1.0000 </r>
       <r>   -3.1339    1.0000 </r>
       <r>   -3.1192    1.0000 </r>
       <r>   -3.1107    1.0000 </r>
       <r>   -3.0618    1.0000 </r>
       <r>   -3.0530    1.0000 </r>
       <r>   -3.0321    1.0000 </r>
       <r>   -3.0288    1.0000 </r>
       <r>   -3.0189    1.0000 </r>
       <r>   -3.0089    1.0000 </r>
       <r>   -2.9736    1.0000 </r>
       <r>   -2.9396    1.0000 </r>
       <r>   -2.9334    1.0000 </r>
       <r>   -2.9292    1.0000 </r>
       <r>   -2.9248    1.0000 </r>
       <r>   -2.9222    1.0000 </r>
       <r>   -2.9136    1.0000 </r>
       <r>   -2.8556    1.0000 </r>
       <r>   -2.8458    1.0000 </r>
       <r>   -2.8422    1.0000 </r>
       <r>   -2.8248    1.0000 </r>
       <r>   -2.8021    1.0000 </r>
       <r>   -2.7989    1.0000 </r>
       <r>   -2.7726    1.0000 </r>
       <r>   -2.7689    1.0000 </r>
       <r>   -2.7452    1.0000 </r>
       <r>   -2.7408    1.0000 </r>
       <r>   -2.7363    1.0000 </r>
       <r>   -2.6972    1.0000 </r>
       <r>   -2.6951    1.0000 </r>
       <r>   -2.6443    1.0000 </r>
       <r>   -2.6352    1.0000 </r>
       <r>   -2.6313    1.0000 </r>
       <r>   -2.6133    1.0000 </r>
       <r>   -2.5960    1.0000 </r>
       <r>   -2.5898    1.0000 </r>
       <r>   -2.5563    1.0000 </r>
       <r>   -2.5424    1.0000 </r>
       <r>   -2.5318    1.0000 </r>
       <r>   -2.5264    1.0000 </r>
       <r>   -2.5240    1.0000 </r>
       <r>   -2.5195    1.0000 </r>
       <r>   -2.5168    1.0000 </r>
       <r>   -2.5053    1.0000 </r>
       <r>   -2.4957    1.0000 </r>
       <r>   -2.4447    1.0000 </r>
       <r>   -2.4412    1.0000 </r>
       <r>   -2.4388    1.0000 </r>
       <r>   -2.4328    1.0000 </r>
       <r>   -2.4155    1.0000 </r>
       <r>   -2.4084    1.0000 </r>
       <r>   -2.3927    1.0000 </r>
       <r>   -2.3900    1.0000 </r>
       <r>   -2.3847    1.0000 </r>
       <r>   -2.3804    1.0000 </r>
       <r>   -2.3751    1.0000 </r>
       <r>   -2.3698    1.0000 </r>
       <r>   -2.3634    1.0000 </r>
       <r>   -2.3517    1.0000 </r>
       <r>   -2.3486    1.0000 </r>
       <r>   -2.3480    1.0000 </r>
       <r>   -2.3169    1.0000 </r>
       <r>   -2.2934    1.0000 </r>
       <r>   -2.2899    1.0000 </r>
       <r>   -2.2676    1.0000 </r>
       <r>   -2.2091    1.0000 </r>
       <r>   -2.2054    1.0000 </r>
       <r>   -2.1578    1.0000 </r>
       <r>   -2.1544    1.0000 </r>
       <r>   -2.1080    1.0000 </r>
       <r>   -2.1063    1.0000 </r>
       <r>   -2.1055    1.0000 </r>
       <r>   -2.0735    1.0000 </r>
       <r>   -2.0528    1.0000 </r>
       <r>   -2.0493    1.0000 </r>
       <r>   -2.0460    1.0000 </r>
       <r>   -2.0436    1.0000 </r>
       <r>   -2.0372    1.0000 </r>
       <r>   -2.0339    1.0000 </r>
       <r>   -2.0290    1.0000 </r>
       <r>   -2.0017    1.0000 </r>
       <r>   -2.0014    1.0000 </r>
       <r>   -1.9678    1.0000 </r>
       <r>   -1.9642    1.0000 </r>
       <r>   -1.9466    1.0000 </r>
       <r>   -1.9183    1.0000 </r>
       <r>   -1.8849    1.0000 </r>
       <r>   -1.8791    1.0000 </r>
       <r>   -1.8676    1.0000 </r>
       <r>   -1.8612    1.0000 </r>
       <r>   -1.8602    1.0000 </r>
       <r>   -1.8591    1.0000 </r>
       <r>   -1.8562    1.0000 </r>
       <r>   -1.8396    1.0000 </r>
       <r>   -1.8366    1.0000 </r>
       <r>   -1.8332    1.0000 </r>
       <r>   -1.8322    1.0000 </r>
       <r>   -1.8183    1.0000 </r>
       <r>   -1.8169    1.0000 </r>
       <r>   -1.8155    1.0000 </r>
       <r>   -1.8147    1.0000 </r>
       <r>   -1.7491    1.0000 </r>
       <r>   -1.7321    1.0000 </r>
       <r>   -1.7271    1.0000 </r>
       <r>   -1.7105    1.0000 </r>
       <r>   -1.7096    1.0000 </r>
       <r>   -1.7039    1.0000 </r>
       <r>   -1.6948    1.0000 </r>
       <r>   -1.6821    1.0000 </r>
       <r>   -1.6816    1.0000 </r>
       <r>   -1.6670    1.0000 </r>
       <r>   -1.6665    1.0000 </r>
       <r>   -1.6423    1.0000 </r>
       <r>   -1.6399    1.0000 </r>
       <r>   -1.6379    1.0000 </r>
       <r>   -1.6342    1.0000 </r>
       <r>   -1.6248    1.0000 </r>
       <r>   -1.6237    1.0000 </r>
       <r>   -1.6134    1.0000 </r>
       <r>   -1.6059    1.0000 </r>
       <r>   -1.5582    1.0000 </r>
       <r>   -1.3790    1.0000 </r>
       <r>   -1.2802    1.0000 </r>
       <r>   -1.2600    1.0000 </r>
       <r>   -1.0079    1.0000 </r>
       <r>   -1.0064    1.0000 </r>
       <r>   -0.6737    0.9990 </r>
       <r>   -0.6714    0.9989 </r>
       <r>   -0.5267    0.9951 </r>
       <r>   -0.3430    1.0490 </r>
       <r>   -0.3422    1.0492 </r>
       <r>   -0.1967    0.8140 </r>
       <r>   -0.1919    0.7940 </r>
       <r>    0.3656    0.0021 </r>
       <r>    0.5800    0.0000 </r>
       <r>    0.5845    0.0000 </r>
       <r>    0.7688    0.0000 </r>
       <r>    0.7707    0.0000 </r>
       <r>    0.8611    0.0000 </r>
       <r>    0.8655    0.0000 </r>
       <r>    1.0361    0.0000 </r>
       <r>    1.0467    0.0000 </r>
       <r>    1.2717    0.0000 </r>
       <r>    1.2751    0.0000 </r>
       <r>    1.6884    0.0000 </r>
       <r>    1.8425    0.0000 </r>
       <r>    1.8538    0.0000 </r>
       <r>    1.9131    0.0000 </r>
       <r>    2.0989    0.0000 </r>
       <r>    2.6568    0.0000 </r>
       <r>    2.7085    0.0000 </r>
       <r>    2.9193    0.0000 </r>
       <r>    2.9241    0.0000 </r>
       <r>    3.0928    0.0000 </r>
       <r>    3.1008    0.0000 </r>
       <r>    3.3701    0.0000 </r>
       <r>    3.3719    0.0000 </r>
       <r>    3.4377    0.0000 </r>
       <r>    3.4398    0.0000 </r>
       <r>    3.6545    0.0000 </r>
       <r>    3.8043    0.0000 </r>
       <r>    3.8883    0.0000 </r>
       <r>    3.8894    0.0000 </r>
       <r>    4.0399    0.0000 </r>
       <r>    4.0759    0.0000 </r>
       <r>    4.4855    0.0000 </r>
       <r>    4.4930    0.0000 </r>
       <r>    4.6828    0.0000 </r>
       <r>    4.7156    0.0000 </r>
       <r>    4.7181    0.0000 </r>
       <r>    5.3721    0.0000 </r>
       <r>    5.3789    0.0000 </r>
       <r>    5.3722    0.0000 </r>
       <r>    5.8203    0.0000 </r>
       <r>    6.0101    0.0000 </r>
      </set>
      <set comment="kpoint 7">
       <r>   -7.8983    1.0000 </r>
       <r>   -7.2842    1.0000 </r>
       <r>   -7.2787    1.0000 </r>
       <r>   -6.6941    1.0000 </r>
       <r>   -6.4005    1.0000 </r>
       <r>   -5.8666    1.0000 </r>
       <r>   -5.8558    1.0000 </r>
       <r>   -5.3567    1.0000 </r>
       <r>   -4.7703    1.0000 </r>
       <r>   -4.7630    1.0000 </r>
       <r>   -4.6283    1.0000 </r>
       <r>   -4.5877    1.0000 </r>
       <r>   -4.5785    1.0000 </r>
       <r>   -4.5336    1.0000 </r>
       <r>   -4.5060    1.0000 </r>
       <r>   -4.5033    1.0000 </r>
       <r>   -4.4787    1.0000 </r>
       <r>   -4.3269    1.0000 </r>
       <r>   -4.3111    1.0000 </r>
       <r>   -4.3058    1.0000 </r>
       <r>   -4.2885    1.0000 </r>
       <r>   -4.2850    1.0000 </r>
       <r>   -4.1638    1.0000 </r>
       <r>   -4.1613    1.0000 </r>
       <r>   -4.1314    1.0000 </r>
       <r>   -4.1242    1.0000 </r>
       <r>   -4.0940    1.0000 </r>
       <r>   -4.0879    1.0000 </r>
       <r>   -4.0780    1.0000 </r>
       <r>   -4.0746    1.0000 </r>
       <r>   -4.0059    1.0000 </r>
       <r>   -3.9850    1.0000 </r>
       <r>   -3.9819    1.0000 </r>
       <r>   -3.9773    1.0000 </r>
       <r>   -3.9317    1.0000 </r>
       <r>   -3.9270    1.0000 </r>
       <r>   -3.9071    1.0000 </r>
       <r>   -3.8475    1.0000 </r>
       <r>   -3.8452    1.0000 </r>
       <r>   -3.8392    1.0000 </r>
       <r>   -3.7980    1.0000 </r>
       <r>   -3.6710    1.0000 </r>
       <r>   -3.6328    1.0000 </r>
       <r>   -3.5937    1.0000 </r>
       <r>   -3.5908    1.0000 </r>
       <r>   -3.5307    1.0000 </r>
       <r>   -3.5198    1.0000 </r>
       <r>   -3.5049    1.0000 </r>
       <r>   -3.4986    1.0000 </r>
       <r>   -3.4931    1.0000 </r>
       <r>   -3.4765    1.0000 </r>
       <r>   -3.4710    1.0000 </r>
       <r>   -3.4368    1.0000 </r>
       <r>   -3.4278    1.0000 </r>
       <r>   -3.3984    1.0000 </r>
       <r>   -3.3116    1.0000 </r>
       <r>   -3.3028    1.0000 </r>
       <r>   -3.2948    1.0000 </r>
       <r>   -3.2880    1.0000 </r>
       <r>   -3.2505    1.0000 </r>
       <r>   -3.2428    1.0000 </r>
       <r>   -3.2051    1.0000 </r>
       <r>   -3.2023    1.0000 </r>
       <r>   -3.1692    1.0000 </r>
       <r>   -3.1582    1.0000 </r>
       <r>   -3.1407    1.0000 </r>
       <r>   -3.1318    1.0000 </r>
       <r>   -3.1192    1.0000 </r>
       <r>   -3.1098    1.0000 </r>
       <r>   -3.0631    1.0000 </r>
       <r>   -3.0532    1.0000 </r>
       <r>   -3.0321    1.0000 </r>
       <r>   -3.0283    1.0000 </r>
       <r>   -3.0188    1.0000 </r>
       <r>   -3.0091    1.0000 </r>
       <r>   -2.9739    1.0000 </r>
       <r>   -2.9398    1.0000 </r>
       <r>   -2.9330    1.0000 </r>
       <r>   -2.9298    1.0000 </r>
       <r>   -2.9244    1.0000 </r>
       <r>   -2.9221    1.0000 </r>
       <r>   -2.9133    1.0000 </r>
       <r>   -2.8570    1.0000 </r>
       <r>   -2.8454    1.0000 </r>
       <r>   -2.8414    1.0000 </r>
       <r>   -2.8234    1.0000 </r>
       <r>   -2.8021    1.0000 </r>
       <r>   -2.7993    1.0000 </r>
       <r>   -2.7728    1.0000 </r>
       <r>   -2.7693    1.0000 </r>
       <r>   -2.7457    1.0000 </r>
       <r>   -2.7404    1.0000 </r>
       <r>   -2.7368    1.0000 </r>
       <r>   -2.6980    1.0000 </r>
       <r>   -2.6943    1.0000 </r>
       <r>   -2.6440    1.0000 </r>
       <r>   -2.6352    1.0000 </r>
       <r>   -2.6314    1.0000 </r>
       <r>   -2.6136    1.0000 </r>
       <r>   -2.5964    1.0000 </r>
       <r>   -2.5899    1.0000 </r>
       <r>   -2.5564    1.0000 </r>
       <r>   -2.5430    1.0000 </r>
       <r>   -2.5311    1.0000 </r>
       <r>   -2.5261    1.0000 </r>
       <r>   -2.5242    1.0000 </r>
       <r>   -2.5189    1.0000 </r>
       <r>   -2.5172    1.0000 </r>
       <r>   -2.5062    1.0000 </r>
       <r>   -2.4941    1.0000 </r>
       <r>   -2.4443    1.0000 </r>
       <r>   -2.4416    1.0000 </r>
       <r>   -2.4385    1.0000 </r>
       <r>   -2.4321    1.0000 </r>
       <r>   -2.4163    1.0000 </r>
       <r>   -2.4084    1.0000 </r>
       <r>   -2.3927    1.0000 </r>
       <r>   -2.3898    1.0000 </r>
       <r>   -2.3833    1.0000 </r>
       <r>   -2.3801    1.0000 </r>
       <r>   -2.3756    1.0000 </r>
       <r>   -2.3700    1.0000 </r>
       <r>   -2.3649    1.0000 </r>
       <r>   -2.3519    1.0000 </r>
       <r>   -2.3488    1.0000 </r>
       <r>   -2.3475    1.0000 </r>
       <r>   -2.3172    1.0000 </r>
       <r>   -2.2920    1.0000 </r>
       <r>   -2.2905    1.0000 </r>
       <r>   -2.2685    1.0000 </r>
       <r>   -2.2093    1.0000 </r>
       <r>   -2.2045    1.0000 </r>
       <r>   -2.1575    1.0000 </r>
       <r>   -2.1546    1.0000 </r>
       <r>   -2.1083    1.0000 </r>
       <r>   -2.1065    1.0000 </r>
       <r>   -2.1056    1.0000 </r>
       <r>   -2.0735    1.0000 </r>
       <r>   -2.0524    1.0000 </r>
       <r>   -2.0497    1.0000 </r>
       <r>   -2.0471    1.0000 </r>
       <r>   -2.0431    1.0000 </r>
       <r>   -2.0372    1.0000 </r>
       <r>   -2.0339    1.0000 </r>
       <r>   -2.0284    1.0000 </r>
       <r>   -2.0016    1.0000 </r>
       <r>   -2.0013    1.0000 </r>
       <r>   -1.9676    1.0000 </r>
       <r>   -1.9642    1.0000 </r>
       <r>   -1.9466    1.0000 </r>
       <r>   -1.9182    1.0000 </r>
       <r>   -1.8850    1.0000 </r>
       <r>   -1.8790    1.0000 </r>
       <r>   -1.8680    1.0000 </r>
       <r>   -1.8614    1.0000 </r>
       <r>   -1.8602    1.0000 </r>
       <r>   -1.8588    1.0000 </r>
       <r>   -1.8561    1.0000 </r>
       <r>   -1.8396    1.0000 </r>
       <r>   -1.8369    1.0000 </r>
       <r>   -1.8329    1.0000 </r>
       <r>   -1.8321    1.0000 </r>
       <r>   -1.8181    1.0000 </r>
       <r>   -1.8169    1.0000 </r>
       <r>   -1.8156    1.0000 </r>
       <r>   -1.8147    1.0000 </r>
       <r>   -1.7490    1.0000 </r>
       <r>   -1.7322    1.0000 </r>
       <r>   -1.7273    1.0000 </r>
       <r>   -1.7108    1.0000 </r>
       <r>   -1.7094    1.0000 </r>
       <r>   -1.7039    1.0000 </r>
       <r>   -1.6950    1.0000 </r>
       <r>   -1.6820    1.0000 </r>
       <r>   -1.6814    1.0000 </r>
       <r>   -1.6671    1.0000 </r>
       <r>   -1.6664    1.0000 </r>
       <r>   -1.6424    1.0000 </r>
       <r>   -1.6405    1.0000 </r>
       <r>   -1.6373    1.0000 </r>
       <r>   -1.6340    1.0000 </r>
       <r>   -1.6251    1.0000 </r>
       <r>   -1.6235    1.0000 </r>
       <r>   -1.6135    1.0000 </r>
       <r>   -1.6059    1.0000 </r>
       <r>   -1.5583    1.0000 </r>
       <r>   -1.3790    1.0000 </r>
       <r>   -1.2802    1.0000 </r>
       <r>   -1.2600    1.0000 </r>
       <r>   -1.0078    1.0000 </r>
       <r>   -1.0064    1.0000 </r>
       <r>   -0.6733    0.9990 </r>
       <r>   -0.6718    0.9989 </r>
       <r>   -0.5268    0.9951 </r>
       <r>   -0.3431    1.0489 </r>
       <r>   -0.3421    1.0492 </r>
       <r>   -0.1976    0.8177 </r>
       <r>   -0.1908    0.7891 </r>
       <r>    0.3655    0.0021 </r>
       <r>    0.5799    0.0000 </r>
       <r>    0.5845    0.0000 </r>
       <r>    0.7687    0.0000 </r>
       <r>    0.7705    0.0000 </r>
       <r>    0.8610    0.0000 </r>
       <r>    0.8653    0.0000 </r>
       <r>    1.0364    0.0000 </r>
       <r>    1.0465    0.0000 </r>
       <r>    1.2722    0.0000 </r>
       <r>    1.2748    0.0000 </r>
       <r>    1.6885    0.0000 </r>
       <r>    1.8448    0.0000 </r>
       <r>    1.8535    0.0000 </r>
       <r>    1.9112    0.0000 </r>
       <r>    2.0989    0.0000 </r>
       <r>    2.6570    0.0000 </r>
       <r>    2.7077    0.0000 </r>
       <r>    2.9182    0.0000 </r>
       <r>    2.9252    0.0000 </r>
       <r>    3.0918    0.0000 </r>
       <r>    3.1017    0.0000 </r>
       <r>    3.3699    0.0000 </r>
       <r>    3.3721    0.0000 </r>
       <r>    3.4380    0.0000 </r>
       <r>    3.4400    0.0000 </r>
       <r>    3.6544    0.0000 </r>
       <r>    3.8028    0.0000 </r>
       <r>    3.8875    0.0000 </r>
       <r>    3.8908    0.0000 </r>
       <r>    4.0395    0.0000 </r>
       <r>    4.0733    0.0000 </r>
       <r>    4.4851    0.0000 </r>
       <r>    4.4936    0.0000 </r>
       <r>    4.6831    0.0000 </r>
       <r>    4.7156    0.0000 </r>
       <r>    4.7181    0.0000 </r>
       <r>    5.3688    0.0000 </r>
       <r>    5.3785    0.0000 </r>
       <r>    5.3717    0.0000 </r>
       <r>    5.8198    0.0000 </r>
       <r>    5.8268    0.0000 </r>
      </set>
      <set comment="kpoint 8">
       <r>   -8.2184    1.0000 </r>
       <r>   -7.5903    1.0000 </r>
       <r>   -6.6955    1.0000 </r>
       <r>   -6.4313    1.0000 </r>
       <r>   -6.1426    1.0000 </r>
       <r>   -5.9104    1.0000 </r>
       <r>   -5.4921    1.0000 </r>
       <r>   -5.2250    1.0000 </r>
       <r>   -5.1007    1.0000 </r>
       <r>   -4.9574    1.0000 </r>
       <r>   -4.8625    1.0000 </r>
       <r>   -4.7923    1.0000 </r>
       <r>   -4.7640    1.0000 </r>
       <r>   -4.7554    1.0000 </r>
       <r>   -4.5126    1.0000 </r>
       <r>   -4.4843    1.0000 </r>
       <r>   -4.4781    1.0000 </r>
       <r>   -4.4238    1.0000 </r>
       <r>   -4.4147    1.0000 </r>
       <r>   -4.3743    1.0000 </r>
       <r>   -4.2640    1.0000 </r>
       <r>   -4.2139    1.0000 </r>
       <r>   -4.2037    1.0000 </r>
       <r>   -4.1679    1.0000 </r>
       <r>   -4.1366    1.0000 </r>
       <r>   -4.0991    1.0000 </r>
       <r>   -4.0892    1.0000 </r>
       <r>   -4.0801    1.0000 </r>
       <r>   -4.0675    1.0000 </r>
       <r>   -4.0398    1.0000 </r>
       <r>   -4.0207    1.0000 </r>
       <r>   -4.0145    1.0000 </r>
       <r>   -3.9236    1.0000 </r>
       <r>   -3.9181    1.0000 </r>
       <r>   -3.8414    1.0000 </r>
       <r>   -3.8300    1.0000 </r>
       <r>   -3.8060    1.0000 </r>
       <r>   -3.7963    1.0000 </r>
       <r>   -3.7362    1.0000 </r>
       <r>   -3.7320    1.0000 </r>
       <r>   -3.7172    1.0000 </r>
       <r>   -3.6889    1.0000 </r>
       <r>   -3.6791    1.0000 </r>
       <r>   -3.6136    1.0000 </r>
       <r>   -3.6106    1.0000 </r>
       <r>   -3.5982    1.0000 </r>
       <r>   -3.5451    1.0000 </r>
       <r>   -3.5066    1.0000 </r>
       <r>   -3.5018    1.0000 </r>
       <r>   -3.4844    1.0000 </r>
       <r>   -3.4785    1.0000 </r>
       <r>   -3.4160    1.0000 </r>
       <r>   -3.3751    1.0000 </r>
       <r>   -3.3674    1.0000 </r>
       <r>   -3.3514    1.0000 </r>
       <r>   -3.3278    1.0000 </r>
       <r>   -3.3199    1.0000 </r>
       <r>   -3.3072    1.0000 </r>
       <r>   -3.2598    1.0000 </r>
       <r>   -3.2546    1.0000 </r>
       <r>   -3.2380    1.0000 </r>
       <r>   -3.2335    1.0000 </r>
       <r>   -3.2210    1.0000 </r>
       <r>   -3.2127    1.0000 </r>
       <r>   -3.2025    1.0000 </r>
       <r>   -3.1947    1.0000 </r>
       <r>   -3.1788    1.0000 </r>
       <r>   -3.1045    1.0000 </r>
       <r>   -3.0653    1.0000 </r>
       <r>   -3.0345    1.0000 </r>
       <r>   -3.0261    1.0000 </r>
       <r>   -3.0211    1.0000 </r>
       <r>   -3.0013    1.0000 </r>
       <r>   -2.9881    1.0000 </r>
       <r>   -2.9413    1.0000 </r>
       <r>   -2.9193    1.0000 </r>
       <r>   -2.8966    1.0000 </r>
       <r>   -2.8897    1.0000 </r>
       <r>   -2.8804    1.0000 </r>
       <r>   -2.8778    1.0000 </r>
       <r>   -2.8707    1.0000 </r>
       <r>   -2.8668    1.0000 </r>
       <r>   -2.8578    1.0000 </r>
       <r>   -2.8561    1.0000 </r>
       <r>   -2.8395    1.0000 </r>
       <r>   -2.8256    1.0000 </r>
       <r>   -2.8115    1.0000 </r>
       <r>   -2.8080    1.0000 </r>
       <r>   -2.7874    1.0000 </r>
       <r>   -2.7769    1.0000 </r>
       <r>   -2.7742    1.0000 </r>
       <r>   -2.7519    1.0000 </r>
       <r>   -2.7458    1.0000 </r>
       <r>   -2.7116    1.0000 </r>
       <r>   -2.7036    1.0000 </r>
       <r>   -2.6773    1.0000 </r>
       <r>   -2.6507    1.0000 </r>
       <r>   -2.6474    1.0000 </r>
       <r>   -2.5900    1.0000 </r>
       <r>   -2.5755    1.0000 </r>
       <r>   -2.5430    1.0000 </r>
       <r>   -2.5363    1.0000 </r>
       <r>   -2.5256    1.0000 </r>
       <r>   -2.5200    1.0000 </r>
       <r>   -2.5148    1.0000 </r>
       <r>   -2.5106    1.0000 </r>
       <r>   -2.4936    1.0000 </r>
       <r>   -2.4888    1.0000 </r>
       <r>   -2.4775    1.0000 </r>
       <r>   -2.4590    1.0000 </r>
       <r>   -2.4488    1.0000 </r>
       <r>   -2.4336    1.0000 </r>
       <r>   -2.4030    1.0000 </r>
       <r>   -2.3882    1.0000 </r>
       <r>   -2.3857    1.0000 </r>
       <r>   -2.3779    1.0000 </r>
       <r>   -2.3755    1.0000 </r>
       <r>   -2.3683    1.0000 </r>
       <r>   -2.3433    1.0000 </r>
       <r>   -2.3370    1.0000 </r>
       <r>   -2.3230    1.0000 </r>
       <r>   -2.3051    1.0000 </r>
       <r>   -2.2953    1.0000 </r>
       <r>   -2.2888    1.0000 </r>
       <r>   -2.2831    1.0000 </r>
       <r>   -2.2216    1.0000 </r>
       <r>   -2.1920    1.0000 </r>
       <r>   -2.1753    1.0000 </r>
       <r>   -2.1671    1.0000 </r>
       <r>   -2.1603    1.0000 </r>
       <r>   -2.1522    1.0000 </r>
       <r>   -2.1422    1.0000 </r>
       <r>   -2.1219    1.0000 </r>
       <r>   -2.1117    1.0000 </r>
       <r>   -2.1035    1.0000 </r>
       <r>   -2.0985    1.0000 </r>
       <r>   -2.0901    1.0000 </r>
       <r>   -2.0880    1.0000 </r>
       <r>   -2.0719    1.0000 </r>
       <r>   -2.0613    1.0000 </r>
       <r>   -2.0573    1.0000 </r>
       <r>   -2.0557    1.0000 </r>
       <r>   -2.0411    1.0000 </r>
       <r>   -2.0398    1.0000 </r>
       <r>   -2.0184    1.0000 </r>
       <r>   -2.0158    1.0000 </r>
       <r>   -1.9985    1.0000 </r>
       <r>   -1.9889    1.0000 </r>
       <r>   -1.9608    1.0000 </r>
       <r>   -1.9541    1.0000 </r>
       <r>   -1.9496    1.0000 </r>
       <r>   -1.9157    1.0000 </r>
       <r>   -1.9003    1.0000 </r>
       <r>   -1.8935    1.0000 </r>
       <r>   -1.8834    1.0000 </r>
       <r>   -1.8802    1.0000 </r>
       <r>   -1.8465    1.0000 </r>
       <r>   -1.8396    1.0000 </r>
       <r>   -1.8181    1.0000 </r>
       <r>   -1.8168    1.0000 </r>
       <r>   -1.8157    1.0000 </r>
       <r>   -1.8071    1.0000 </r>
       <r>   -1.8012    1.0000 </r>
       <r>   -1.7972    1.0000 </r>
       <r>   -1.7935    1.0000 </r>
       <r>   -1.7804    1.0000 </r>
       <r>   -1.7619    1.0000 </r>
       <r>   -1.7584    1.0000 </r>
       <r>   -1.7567    1.0000 </r>
       <r>   -1.7544    1.0000 </r>
       <r>   -1.7442    1.0000 </r>
       <r>   -1.7319    1.0000 </r>
       <r>   -1.7298    1.0000 </r>
       <r>   -1.7265    1.0000 </r>
       <r>   -1.7116    1.0000 </r>
       <r>   -1.6905    1.0000 </r>
       <r>   -1.6732    1.0000 </r>
       <r>   -1.6618    1.0000 </r>
       <r>   -1.6518    1.0000 </r>
       <r>   -1.6479    1.0000 </r>
       <r>   -1.6383    1.0000 </r>
       <r>   -1.6090    1.0000 </r>
       <r>   -1.5953    1.0000 </r>
       <r>   -1.5936    1.0000 </r>
       <r>   -1.5782    1.0000 </r>
       <r>   -1.5550    1.0000 </r>
       <r>   -1.5041    1.0000 </r>
       <r>   -1.4647    1.0000 </r>
       <r>   -1.4426    1.0000 </r>
       <r>   -1.3811    1.0000 </r>
       <r>   -1.3407    1.0000 </r>
       <r>   -1.2749    1.0000 </r>
       <r>   -1.2053    1.0000 </r>
       <r>   -0.8527    1.0000 </r>
       <r>   -0.7629    0.9999 </r>
       <r>   -0.6285    0.9978 </r>
       <r>   -0.4564    1.0035 </r>
       <r>   -0.0373    0.0753 </r>
       <r>    0.1490   -0.0184 </r>
       <r>    0.1627   -0.0128 </r>
       <r>    0.2379    0.0038 </r>
       <r>    0.3388    0.0031 </r>
       <r>    0.4807    0.0002 </r>
       <r>    0.6777    0.0000 </r>
       <r>    0.9147    0.0000 </r>
       <r>    1.1128    0.0000 </r>
       <r>    1.4896    0.0000 </r>
       <r>    1.6193    0.0000 </r>
       <r>    1.8997    0.0000 </r>
       <r>    1.9170    0.0000 </r>
       <r>    2.3787    0.0000 </r>
       <r>    2.4021    0.0000 </r>
       <r>    2.4981    0.0000 </r>
       <r>    2.5232    0.0000 </r>
       <r>    2.5770    0.0000 </r>
       <r>    2.6007    0.0000 </r>
       <r>    2.9279    0.0000 </r>
       <r>    3.0425    0.0000 </r>
       <r>    3.0435    0.0000 </r>
       <r>    3.1314    0.0000 </r>
       <r>    3.5789    0.0000 </r>
       <r>    3.5907    0.0000 </r>
       <r>    3.7502    0.0000 </r>
       <r>    3.9703    0.0000 </r>
       <r>    3.9963    0.0000 </r>
       <r>    4.0178    0.0000 </r>
       <r>    4.2339    0.0000 </r>
       <r>    4.3146    0.0000 </r>
       <r>    4.3671    0.0000 </r>
       <r>    4.3942    0.0000 </r>
       <r>    4.6575    0.0000 </r>
       <r>    4.8564    0.0000 </r>
       <r>    4.8788    0.0000 </r>
       <r>    5.0323    0.0000 </r>
       <r>    5.1728    0.0000 </r>
       <r>    5.3309    0.0000 </r>
       <r>    5.4023    0.0000 </r>
       <r>    5.4388    0.0000 </r>
       <r>    5.6104    0.0000 </r>
       <r>    5.8221    0.0000 </r>
      </set>
     </set>
    </set>
   </array>
  </eigenvalues>
  <separator name="orbital magnetization" >
   <v name="MAGDIPOLOUT">      0.00000000      0.00000000      0.00000000</v>
  </separator>
  <dos>
   <i name="efermi">     -0.13243570 </i>
   <total>
    <array>
     <dimension dim="1">gridpoints</dimension>
     <dimension dim="2">spin</dimension>
     <field>energy</field>
     <field>total</field>
     <field>integrated</field>
     <set>
      <set comment="spin 1">
       <r>   -10.5428     0.0000     0.0000 </r>
       <r>   -10.4809     0.0000     0.0000 </r>
       <r>   -10.4191     0.0000     0.0000 </r>
       <r>   -10.3572     0.0000     0.0000 </r>
       <r>   -10.2954     0.0000     0.0000 </r>
       <r>   -10.2336     0.0000     0.0000 </r>
       <r>   -10.1717     0.0000     0.0000 </r>
       <r>   -10.1099     0.0000     0.0000 </r>
       <r>   -10.0480     0.0000     0.0000 </r>
       <r>    -9.9862     0.0000     0.0000 </r>
       <r>    -9.9243     0.0000     0.0000 </r>
       <r>    -9.8625     0.0000     0.0000 </r>
       <r>    -9.8007     0.0000     0.0000 </r>
       <r>    -9.7388     0.0000     0.0000 </r>
       <r>    -9.6770     0.0000     0.0000 </r>
       <r>    -9.6151     0.0000     0.0000 </r>
       <r>    -9.5533     0.0000     0.0000 </r>
       <r>    -9.4914     0.0000     0.0000 </r>
       <r>    -9.4296     0.0000     0.0000 </r>
       <r>    -9.3678     0.0000     0.0000 </r>
       <r>    -9.3059     0.0000     0.0000 </r>
       <r>    -9.2441     0.0001     0.0000 </r>
       <r>    -9.1822     0.0008     0.0001 </r>
       <r>    -9.1204     0.0031     0.0002 </r>
       <r>    -9.0585     0.0091     0.0008 </r>
       <r>    -8.9967     0.0171     0.0019 </r>
       <r>    -8.9349     0.0090     0.0024 </r>
       <r>    -8.8730    -0.0543    -0.0009 </r>
       <r>    -8.8112    -0.1753    -0.0118 </r>
       <r>    -8.7493    -0.1932    -0.0237 </r>
       <r>    -8.6875     0.2174    -0.0103 </r>
       <r>    -8.6256     1.1766     0.0625 </r>
       <r>    -8.5638     2.1559     0.1958 </r>
       <r>    -8.5020     2.2872     0.3373 </r>
       <r>    -8.4401     1.4698     0.4282 </r>
       <r>    -8.3783     0.8750     0.4823 </r>
       <r>    -8.3164     1.7558     0.5908 </r>
       <r>    -8.2546     3.7371     0.8220 </r>
       <r>    -8.1927     4.9240     1.1265 </r>
       <r>    -8.1309     4.0719     1.3783 </r>
       <r>    -8.0691     2.1217     1.5095 </r>
       <r>    -8.0072     1.0098     1.5719 </r>
       <r>    -7.9454     1.3446     1.6551 </r>
       <r>    -7.8835     1.9676     1.7768 </r>
       <r>    -7.8217     1.7636     1.8859 </r>
       <r>    -7.7598     1.2287     1.9618 </r>
       <r>    -7.6980     1.7375     2.0693 </r>
       <r>    -7.6362     3.4398     2.2820 </r>
       <r>    -7.5743     4.6862     2.5718 </r>
       <r>    -7.5125     4.0657     2.8233 </r>
       <r>    -7.4506     2.4333     2.9737 </r>
       <r>    -7.3888     1.9487     3.0943 </r>
       <r>    -7.3269     3.2410     3.2947 </r>
       <r>    -7.2651     4.5932     3.5788 </r>
       <r>    -7.2033     4.2828     3.8436 </r>
       <r>    -7.1414     2.7550     4.0140 </r>
       <r>    -7.0796     1.6553     4.1164 </r>
       <r>    -7.0177     1.4270     4.2046 </r>
       <r>    -6.9559     1.2057     4.2792 </r>
       <r>    -6.8940     1.0754     4.3457 </r>
       <r>    -6.8322     2.8175     4.5199 </r>
       <r>    -6.7704     7.1688     4.9633 </r>
       <r>    -6.7085    11.3680     5.6663 </r>
       <r>    -6.6467    11.6606     6.3874 </r>
       <r>    -6.5848     8.2199     6.8958 </r>
       <r>    -6.5230     5.1523     7.2144 </r>
       <r>    -6.4611     5.0818     7.5287 </r>
       <r>    -6.3993     6.2119     7.9128 </r>
       <r>    -6.3375     5.7894     8.2708 </r>
       <r>    -6.2756     4.1019     8.5245 </r>
       <r>    -6.2138     3.2330     8.7245 </r>
       <r>    -6.1519     3.5583     8.9445 </r>
       <r>    -6.0901     3.8360     9.1817 </r>
       <r>    -6.0282     4.0336     9.4312 </r>
       <r>    -5.9664     5.5698     9.7756 </r>
       <r>    -5.9046     8.5436    10.3040 </r>
       <r>    -5.8427    10.7761    10.9704 </r>
       <r>    -5.7809    10.2535    11.6045 </r>
       <r>    -5.7190     7.3604    12.0597 </r>
       <r>    -5.6572     4.5280    12.3397 </r>
       <r>    -5.5953     4.2340    12.6016 </r>
       <r>    -5.5335     6.7710    13.0203 </r>
       <r>    -5.4717     9.7168    13.6212 </r>
       <r>    -5.4098    10.5276    14.2723 </r>
       <r>    -5.3480     9.4118    14.8543 </r>
       <r>    -5.2861     8.4972    15.3798 </r>
       <r>    -5.2243     8.8797    15.9290 </r>
       <r>    -5.1624     9.8964    16.5410 </r>
       <r>    -5.1006    10.6853    17.2018 </r>
       <r>    -5.0388    11.2650    17.8985 </r>
       <r>    -4.9769    12.5253    18.6731 </r>
       <r>    -4.9151    15.8026    19.6503 </r>
       <r>    -4.8532    21.4011    20.9738 </r>
       <r>    -4.7914    26.7379    22.6274 </r>
       <r>    -4.7295    28.0333    24.3610 </r>
       <r>    -4.6677    25.5814    25.9431 </r>
       <r>    -4.6059    24.7284    27.4723 </r>
       <r>    -4.5440    29.2343    29.2803 </r>
       <r>    -4.4822    36.4328    31.5334 </r>
       <r>    -4.4203    41.3705    34.0918 </r>
       <r>    -4.3585    43.0448    36.7539 </r>
       <r>    -4.2966    44.6614    39.5158 </r>
       <r>    -4.2348    50.2487    42.6234 </r>
       <r>    -4.1730    61.7745    46.4437 </r>
       <r>    -4.1111    76.6211    51.1821 </r>
       <r>    -4.0493    87.7653    56.6098 </r>
       <r>    -3.9874    89.5523    62.1479 </r>
       <r>    -3.9256    83.3077    67.2999 </r>
       <r>    -3.8637    75.0860    71.9435 </r>
       <r>    -3.8019    68.9022    76.2046 </r>
       <r>    -3.7401    64.6468    80.2025 </r>
       <r>    -3.6782    61.9187    84.0317 </r>
       <r>    -3.6164    62.7114    87.9100 </r>
       <r>    -3.5545    68.5127    92.1470 </r>
       <r>    -3.4927    76.6687    96.8884 </r>
       <r>    -3.4308    83.2706   102.0381 </r>
       <r>    -3.3690    89.1274   107.5500 </r>
       <r>    -3.3072    97.9165   113.6054 </r>
       <r>    -3.2453   107.7018   120.2660 </r>
       <r>    -3.1835   110.3147   127.0882 </r>
       <r>    -3.1216   102.3838   133.4199 </r>
       <r>    -3.0598    93.0657   139.1753 </r>
       <r>    -2.9979    97.0886   145.1796 </r>
       <r>    -2.9361   120.0538   152.6040 </r>
       <r>    -2.8743   150.4162   161.9062 </r>
       <r>    -2.8124   166.5904   172.2086 </r>
       <r>    -2.7506   155.6831   181.8365 </r>
       <r>    -2.6887   126.9378   189.6867 </r>
       <r>    -2.6269   104.1667   196.1286 </r>
       <r>    -2.5650   104.2674   202.5768 </r>
       <r>    -2.5032   124.9314   210.3029 </r>
       <r>    -2.4414   150.6001   219.6165 </r>
       <r>    -2.3795   165.3862   229.8444 </r>
       <r>    -2.3177   162.9869   239.9240 </r>
       <r>    -2.2558   151.0569   249.2658 </r>
       <r>    -2.1940   144.8981   258.2267 </r>
       <r>    -2.1321   151.6977   267.6081 </r>
       <r>    -2.0703   163.1080   277.6952 </r>
       <r>    -2.0085   168.0455   288.0876 </r>
       <r>    -1.9466   169.1590   298.5488 </r>
       <r>    -1.8848   178.7412   309.6027 </r>
       <r>    -1.8229   199.3613   321.9317 </r>
       <r>    -1.7611   217.4230   335.3778 </r>
       <r>    -1.6992   216.6656   348.7770 </r>
       <r>    -1.6374   190.6157   360.5652 </r>
       <r>    -1.5756   143.7669   369.4562 </r>
       <r>    -1.5137    89.6252   374.9989 </r>
       <r>    -1.4519    45.8769   377.8360 </r>
       <r>    -1.3900    23.2000   379.2708 </r>
       <r>    -1.3282    18.1335   380.3922 </r>
       <r>    -1.2663    19.2885   381.5850 </r>
       <r>    -1.2045    18.5142   382.7300 </r>
       <r>    -1.1427    14.7879   383.6445 </r>
       <r>    -1.0808    10.6147   384.3010 </r>
       <r>    -1.0190     8.1036   384.8021 </r>
       <r>    -0.9571     8.1964   385.3090 </r>
       <r>    -0.8953    10.9067   385.9835 </r>
       <r>    -0.8335    14.8208   386.9001 </r>
       <r>    -0.7716    17.4929   387.9819 </r>
       <r>    -0.7098    17.4475   389.0609 </r>
       <r>    -0.6479    15.3964   390.0130 </r>
       <r>    -0.5861    13.2633   390.8333 </r>
       <r>    -0.5242    12.3928   391.5997 </r>
       <r>    -0.4624    12.5403   392.3752 </r>
       <r>    -0.4006    12.3968   393.1419 </r>
       <r>    -0.3387    11.3325   393.8427 </r>
       <r>    -0.2769    10.2993   394.4796 </r>
       <r>    -0.2150    10.3390   395.1190 </r>
       <r>    -0.1532    10.7376   395.7831 </r>
       <r>    -0.0913     9.9913   396.4010 </r>
       <r>    -0.0295     8.5368   396.9289 </r>
       <r>     0.0323     8.9264   397.4809 </r>
       <r>     0.0942    12.4723   398.2523 </r>
       <r>     0.1560    16.8544   399.2946 </r>
       <r>     0.2179    18.4323   400.4345 </r>
       <r>     0.2797    16.3108   401.4432 </r>
       <r>     0.3416    12.7184   402.2297 </r>
       <r>     0.4034    10.0403   402.8507 </r>
       <r>     0.4652     8.9862   403.4064 </r>
       <r>     0.5271     9.1070   403.9696 </r>
       <r>     0.5889     9.6883   404.5687 </r>
       <r>     0.6508    10.1865   405.1987 </r>
       <r>     0.7126    10.5215   405.8494 </r>
       <r>     0.7745    11.0440   406.5324 </r>
       <r>     0.8363    12.0482   407.2775 </r>
       <r>     0.8981    13.4308   408.1081 </r>
       <r>     0.9600    14.8615   409.0271 </r>
       <r>     1.0218    15.9001   410.0105 </r>
       <r>     1.0837    15.8551   410.9910 </r>
       <r>     1.1455    14.1367   411.8652 </r>
       <r>     1.2074    10.9542   412.5427 </r>
       <r>     1.2692     7.2889   412.9934 </r>
       <r>     1.3310     4.4576   413.2691 </r>
       <r>     1.3929     3.9424   413.5129 </r>
       <r>     1.4547     6.5100   413.9155 </r>
       <r>     1.5166    10.6723   414.5755 </r>
       <r>     1.5784    13.0767   415.3842 </r>
       <r>     1.6403    11.6137   416.1024 </r>
       <r>     1.7021     8.0114   416.5979 </r>
       <r>     1.7639     6.6500   417.0091 </r>
       <r>     1.8258    10.2414   417.6425 </r>
       <r>     1.8876    16.7933   418.6810 </r>
       <r>     1.9495    21.5504   420.0138 </r>
       <r>     2.0113    21.5862   421.3487 </r>
       <r>     2.0732    17.3969   422.4246 </r>
       <r>     2.1350    11.0358   423.1071 </r>
       <r>     2.1968     4.9169   423.4112 </r>
       <r>     2.2587     1.8212   423.5238 </r>
       <r>     2.3205     3.5607   423.7440 </r>
       <r>     2.3824     9.2492   424.3160 </r>
       <r>     2.4442    15.9933   425.3051 </r>
       <r>     2.5061    21.0045   426.6040 </r>
       <r>     2.5679    22.4245   427.9908 </r>
       <r>     2.6297    19.3685   429.1886 </r>
       <r>     2.6916    12.8180   429.9813 </r>
       <r>     2.7534     6.1308   430.3605 </r>
       <r>     2.8153     3.2681   430.5626 </r>
       <r>     2.8771     5.9122   430.9282 </r>
       <r>     2.9390    12.3571   431.6924 </r>
       <r>     3.0008    18.8432   432.8577 </r>
       <r>     3.0626    21.6121   434.1943 </r>
       <r>     3.1245    18.9081   435.3636 </r>
       <r>     3.1863    12.8351   436.1574 </r>
       <r>     3.2482     8.6022   436.6894 </r>
       <r>     3.3100     9.7895   437.2948 </r>
       <r>     3.3719    14.6587   438.2013 </r>
       <r>     3.4337    18.8040   439.3642 </r>
       <r>     3.4955    20.3659   440.6237 </r>
       <r>     3.5574    20.3676   441.8833 </r>
       <r>     3.6192    19.2740   443.0752 </r>
       <r>     3.6811    16.5790   444.1005 </r>
       <r>     3.7429    13.5416   444.9380 </r>
       <r>     3.8048    13.4557   445.7701 </r>
       <r>     3.8666    18.5055   446.9146 </r>
       <r>     3.9284    26.9785   448.5830 </r>
       <r>     3.9903    33.3155   450.6433 </r>
       <r>     4.0521    31.8887   452.6154 </r>
       <r>     4.1140    22.7141   454.0201 </r>
       <r>     4.1758    12.6307   454.8012 </r>
       <r>     4.2377     8.7859   455.3446 </r>
       <r>     4.2995    11.6690   456.0662 </r>
       <r>     4.3613    15.7986   457.0432 </r>
       <r>     4.4232    16.0609   458.0365 </r>
       <r>     4.4850    12.3140   458.7980 </r>
       <r>     4.5469     8.6857   459.3352 </r>
       <r>     4.6087     9.1021   459.8981 </r>
       <r>     4.6706    13.2893   460.7199 </r>
       <r>     4.7324    17.2731   461.7881 </r>
       <r>     4.7942    17.7755   462.8874 </r>
       <r>     4.8561    15.2718   463.8319 </r>
       <r>     4.9179    12.7516   464.6205 </r>
       <r>     4.9798    12.5118   465.3942 </r>
       <r>     5.0416    14.1102   466.2669 </r>
       <r>     5.1035    14.9939   467.1941 </r>
       <r>     5.1653    13.7353   468.0435 </r>
       <r>     5.2271    12.5876   468.8220 </r>
       <r>     5.2890    15.2673   469.7662 </r>
       <r>     5.3508    21.7361   471.1104 </r>
       <r>     5.4127    27.0388   472.7826 </r>
       <r>     5.4745    26.5999   474.4276 </r>
       <r>     5.5364    21.1808   475.7374 </r>
       <r>     5.5982    15.1726   476.6758 </r>
       <r>     5.6600    11.5498   477.3900 </r>
       <r>     5.7219    10.1692   478.0189 </r>
       <r>     5.7837     9.5727   478.6109 </r>
       <r>     5.8456     8.5634   479.1405 </r>
       <r>     5.9074     6.6661   479.5528 </r>
       <r>     5.9693     4.2646   479.8165 </r>
       <r>     6.0311     2.1706   479.9507 </r>
       <r>     6.0929     0.8338   480.0023 </r>
       <r>     6.1548     0.1648   480.0125 </r>
       <r>     6.2166    -0.0867   480.0071 </r>
       <r>     6.2785    -0.1097   480.0003 </r>
       <r>     6.3403    -0.0477   479.9974 </r>
       <r>     6.4022     0.0034   479.9976 </r>
       <r>     6.4640     0.0180   479.9987 </r>
       <r>     6.5258     0.0128   479.9995 </r>
       <r>     6.5877     0.0056   479.9999 </r>
       <r>     6.6495     0.0017   480.0000 </r>
       <r>     6.7114     0.0004   480.0000 </r>
       <r>     6.7732     0.0001   480.0000 </r>
       <r>     6.8351     0.0000   480.0000 </r>
       <r>     6.8969     0.0000   480.0000 </r>
       <r>     6.9587     0.0000   480.0000 </r>
       <r>     7.0206     0.0000   480.0000 </r>
       <r>     7.0824     0.0000   480.0000 </r>
       <r>     7.1443     0.0000   480.0000 </r>
       <r>     7.2061     0.0000   480.0000 </r>
       <r>     7.2680     0.0000   480.0000 </r>
       <r>     7.3298     0.0000   480.0000 </r>
       <r>     7.3916     0.0000   480.0000 </r>
       <r>     7.4535     0.0000   480.0000 </r>
       <r>     7.5153     0.0000   480.0000 </r>
       <r>     7.5772     0.0000   480.0000 </r>
       <r>     7.6390     0.0000   480.0000 </r>
       <r>     7.7009     0.0000   480.0000 </r>
       <r>     7.7627     0.0000   480.0000 </r>
       <r>     7.8245     0.0000   480.0000 </r>
       <r>     7.8864     0.0000   480.0000 </r>
       <r>     7.9482     0.0000   480.0000 </r>
       <r>     8.0101     0.0000   480.0000 </r>
      </set>
     </set>
    </array>
   </total>
  </dos>
 </calculation>
 <structure name="finalpos" >
  <crystal>
   <varray name="basis" >
    <v>       7.70037500       0.00000000       0.00000000 </v>
    <v>       0.00000000       7.70037500       0.00000000 </v>
    <v>       0.00000000       0.00000000      22.25999800 </v>
   </varray>
   <i name="volume">   1319.92383604 </i>
   <varray name="rec_basis" >
    <v>       0.12986381       0.00000000       0.00000000 </v>
    <v>       0.00000000       0.12986381       0.00000000 </v>
    <v>       0.00000000       0.00000000       0.04492363 </v>
   </varray>
  </crystal>
  <varray name="positions" >
   <v>       0.16666708       0.16666708       0.00000000 </v>
   <v>       0.50000110       0.16666708       0.00000000 </v>
   <v>       0.83333526       0.16666708       0.00000000 </v>
   <v>       0.16666708       0.50000110       0.00000000 </v>
   <v>       0.50000110       0.50000110       0.00000000 </v>
   <v>       0.83333526       0.50000110       0.00000000 </v>
   <v>       0.16666708       0.83333526       0.00000000 </v>
   <v>       0.50000110       0.83333526       0.00000000 </v>
   <v>       0.83333526       0.83333526       0.00000000 </v>
   <v>       0.00000000       0.00000000       0.08153640 </v>
   <v>       0.33333416       0.00000000       0.08153640 </v>
   <v>       0.66666818       0.00000000       0.08153640 </v>
   <v>       0.00000000       0.33333416       0.08153640 </v>
   <v>       0.33333416       0.33333416       0.08153640 </v>
   <v>       0.66666818       0.33333416       0.08153640 </v>
   <v>       0.00000000       0.66666818       0.08153640 </v>
   <v>       0.33333416       0.66666818       0.08153640 </v>
   <v>       0.66666818       0.66666818       0.08153640 </v>
   <v>       0.16749132       0.16755171       0.16633056 </v>
   <v>       0.50023135       0.16854569       0.16659426 </v>
   <v>       0.83382822       0.17046235       0.16772441 </v>
   <v>       0.16775183       0.49998007       0.16359364 </v>
   <v>       0.49814808       0.49989721       0.16238928 </v>
   <v>       0.83170417       0.50060588       0.16558160 </v>
   <v>       0.16698693       0.83269425       0.16625136 </v>
   <v>       0.49959450       0.83143159       0.16657733 </v>
   <v>       0.83341318       0.83126432       0.16761520 </v>
   <v>       0.00132513       0.00111748       0.24773960 </v>
   <v>       0.33395555       0.99946665       0.24757473 </v>
   <v>       0.66657143       0.00089502       0.24789836 </v>
   <v>       0.00244988       0.33616610       0.24967743 </v>
   <v>       0.33544626       0.33422567       0.25154063 </v>
   <v>       0.66548343       0.33587572       0.25168187 </v>
   <v>       0.00045024       0.66549733       0.24947307 </v>
   <v>       0.33368154       0.66454491       0.25157729 </v>
   <v>       0.66443608       0.66598536       0.25129167 </v>
  </varray>
  <varray name="selective"  type="logical" >
   <v type="logical" >  F  F  F </v>
   <v type="logical" >  F  F  F </v>
   <v type="logical" >  F  F  F </v>
   <v type="logical" >  F  F  F </v>
   <v type="logical" >  F  F  F </v>
   <v type="logical" >  F  F  F </v>
   <v type="logical" >  F  F  F </v>
   <v type="logical" >  F  F  F </v>
   <v type="logical" >  F  F  F </v>
   <v type="logical" >  F  F  F </v>
   <v type="logical" >  F  F  F </v>
   <v type="logical" >  F  F  F </v>
   <v type="logical" >  F  F  F </v>
   <v type="logical" >  F  F  F </v>
   <v type="logical" >  F  F  F </v>
   <v type="logical" >  F  F  F </v>
   <v type="logical" >  F  F  F </v>
   <v type="logical" >  F  F  F </v>
   <v type="logical" >  T  T  T </v>
   <v type="logical" >  T  T  T </v>
   <v type="logical" >  T  T  T </v>
   <v type="logical" >  T  T  T </v>
   <v type="logical" >  T  T  T </v>
   <v type="logical" >  T  T  T </v>
   <v type="logical" >  T  T  T </v>
   <v type="logical" >  T  T  T </v>
   <v type="logical" >  T  T  T </v>
   <v type="logical" >  T  T  T </v>
   <v type="logical" >  T  T  T </v>
   <v type="logical" >  T  T  T </v>
   <v type="logical" >  T  T  T </v>
   <v type="logical" >  T  T  T </v>
   <v type="logical" >  T  T  T </v>
   <v type="logical" >  T  T  T </v>
   <v type="logical" >  T  T  T </v>
   <v type="logical" >  T  T  T </v>
  </varray>
  <nose>
   <v>      -3.00000000       0.00000000       0.00010000       0.00010000 </v>
  </nose>
 </structure>
</modeling>
