  36  36   0   0
  0.3666455E+02  0.7700375E-09  0.7700375E-09  0.2226000E-08  0.5000000E-15
  1.000000000000000E-004
  CAR 
 unknown system                          
      8.08414888    -10.87428118  301     -0.46205157      1.00000000
    -10.874  0.0000E+00  0.0000E+00
    -10.811  0.0000E+00  0.0000E+00
    -10.748  0.0000E+00  0.0000E+00
    -10.685  0.0000E+00  0.0000E+00
    -10.622  0.0000E+00  0.0000E+00
    -10.558  0.0000E+00  0.0000E+00
    -10.495  0.1685E-25  0.1065E-26
    -10.432  0.2241E-23  0.1427E-24
    -10.369  0.2441E-21  0.1557E-22
    -10.306  0.2163E-19  0.1383E-20
    -10.242  0.1559E-17  0.9988E-19
    -10.179  0.9124E-16  0.5866E-17
    -10.116  0.4335E-14  0.2798E-15
    -10.053  0.1673E-12  0.1085E-13
     -9.990  0.5212E-11  0.3402E-12
     -9.926  0.1313E-09  0.8635E-11
     -9.863  0.2664E-08  0.1770E-09
     -9.800  0.4344E-07  0.2922E-08
     -9.737  0.5669E-06  0.3874E-07
     -9.674  0.5887E-05  0.4108E-06
     -9.610  0.4828E-04  0.3462E-05
     -9.547  0.3090E-03  0.2299E-04
     -9.484  0.1514E-02  0.1186E-03
     -9.421  0.5479E-02  0.4649E-03
     -9.358  0.1351E-01  0.1319E-02
     -9.294  0.1691E-01  0.2387E-02
     -9.231 -0.1724E-01  0.1298E-02
     -9.168 -0.1225E+00 -0.6446E-02
     -9.105 -0.2174E+00 -0.2019E-01
     -9.042 -0.5330E-02 -0.2052E-01
     -8.978  0.7917E+00  0.2951E-01
     -8.915  0.1884E+01  0.1485E+00
     -8.852  0.2368E+01  0.2982E+00
     -8.789  0.1753E+01  0.4090E+00
     -8.726  0.9256E+00  0.4675E+00
     -8.662  0.1390E+01  0.5553E+00
     -8.599  0.3286E+01  0.7630E+00
     -8.536  0.4834E+01  0.1068E+01
     -8.473  0.4358E+01  0.1344E+01
     -8.410  0.2420E+01  0.1497E+01
     -8.346  0.1070E+01  0.1564E+01
     -8.283  0.1262E+01  0.1644E+01
     -8.220  0.1936E+01  0.1767E+01
     -8.157  0.1803E+01  0.1880E+01
     -8.094  0.1242E+01  0.1959E+01
     -8.031  0.1706E+01  0.2067E+01
     -7.967  0.3429E+01  0.2283E+01
     -7.904  0.4688E+01  0.2580E+01
     -7.841  0.4007E+01  0.2833E+01
     -7.778  0.2356E+01  0.2982E+01
     -7.715  0.2003E+01  0.3108E+01
     -7.651  0.3419E+01  0.3324E+01
     -7.588  0.4657E+01  0.3619E+01
     -7.525  0.4093E+01  0.3877E+01
     -7.462  0.2502E+01  0.4035E+01
     -7.399  0.1563E+01  0.4134E+01
     -7.335  0.1405E+01  0.4223E+01
     -7.272  0.1120E+01  0.4294E+01
     -7.209  0.1272E+01  0.4374E+01
     -7.146  0.3825E+01  0.4616E+01
     -7.083  0.8642E+01  0.5162E+01
     -7.019  0.1198E+02  0.5919E+01
     -6.956  0.1073E+02  0.6597E+01
     -6.893  0.6830E+01  0.7029E+01
     -6.830  0.4791E+01  0.7331E+01
     -6.767  0.5596E+01  0.7685E+01
     -6.703  0.6282E+01  0.8082E+01
     -6.640  0.5048E+01  0.8401E+01
     -6.577  0.3499E+01  0.8622E+01
     -6.514  0.3316E+01  0.8832E+01
     -6.451  0.3763E+01  0.9069E+01
     -6.387  0.3872E+01  0.9314E+01
     -6.324  0.4672E+01  0.9609E+01
     -6.261  0.7241E+01  0.1007E+02
     -6.198  0.1015E+02  0.1071E+02
     -6.135  0.1080E+02  0.1139E+02
     -6.071  0.8517E+01  0.1193E+02
     -6.008  0.5278E+01  0.1226E+02
     -5.945  0.3979E+01  0.1251E+02
     -5.882  0.5865E+01  0.1288E+02
     -5.819  0.9073E+01  0.1346E+02
     -5.756  0.1056E+02  0.1413E+02
     -5.692  0.9713E+01  0.1474E+02
     -5.629  0.8582E+01  0.1528E+02
     -5.566  0.8743E+01  0.1583E+02
     -5.503  0.9753E+01  0.1645E+02
     -5.440  0.1062E+02  0.1712E+02
     -5.376  0.1120E+02  0.1783E+02
     -5.313  0.1236E+02  0.1861E+02
     -5.250  0.1551E+02  0.1959E+02
     -5.187  0.2111E+02  0.2092E+02
     -5.124  0.2662E+02  0.2261E+02
     -5.060  0.2802E+02  0.2438E+02
     -4.997  0.2555E+02  0.2599E+02
     -4.934  0.2485E+02  0.2756E+02
     -4.871  0.2969E+02  0.2944E+02
     -4.808  0.3697E+02  0.3178E+02
     -4.744  0.4165E+02  0.3441E+02
     -4.681  0.4321E+02  0.3714E+02
     -4.618  0.4528E+02  0.4000E+02
     -4.555  0.5193E+02  0.4328E+02
     -4.492  0.6458E+02  0.4736E+02
     -4.428  0.7942E+02  0.5238E+02
     -4.365  0.8884E+02  0.5800E+02
     -4.302  0.8834E+02  0.6358E+02
     -4.239  0.8103E+02  0.6870E+02
     -4.176  0.7312E+02  0.7332E+02
     -4.112  0.6744E+02  0.7758E+02
     -4.049  0.6343E+02  0.8159E+02
     -3.986  0.6166E+02  0.8549E+02
     -3.923  0.6455E+02  0.8957E+02
     -3.860  0.7197E+02  0.9412E+02
     -3.796  0.7976E+02  0.9916E+02
     -3.733  0.8553E+02  0.1046E+03
     -3.670  0.9257E+02  0.1104E+03
     -3.607  0.1029E+03  0.1169E+03
     -3.544  0.1104E+03  0.1239E+03
     -3.480  0.1071E+03  0.1307E+03
     -3.417  0.9656E+02  0.1368E+03
     -3.354  0.9335E+02  0.1427E+03
     -3.291  0.1093E+03  0.1496E+03
     -3.228  0.1397E+03  0.1584E+03
     -3.165  0.1638E+03  0.1688E+03
     -3.101  0.1622E+03  0.1790E+03
     -3.038  0.1363E+03  0.1876E+03
     -2.975  0.1088E+03  0.1945E+03
     -2.912  0.1019E+03  0.2009E+03
     -2.849  0.1188E+03  0.2084E+03
     -2.785  0.1454E+03  0.2176E+03
     -2.722  0.1638E+03  0.2280E+03
     -2.659  0.1645E+03  0.2384E+03
     -2.596  0.1530E+03  0.2480E+03
     -2.533  0.1450E+03  0.2572E+03
     -2.469  0.1504E+03  0.2667E+03
     -2.406  0.1622E+03  0.2770E+03
     -2.343  0.1679E+03  0.2876E+03
     -2.280  0.1692E+03  0.2983E+03
     -2.217  0.1786E+03  0.3095E+03
     -2.153  0.1996E+03  0.3222E+03
     -2.090  0.2177E+03  0.3359E+03
     -2.027  0.2159E+03  0.3496E+03
     -1.964  0.1878E+03  0.3614E+03
     -1.901  0.1387E+03  0.3702E+03
     -1.837  0.8370E+02  0.3755E+03
     -1.774  0.4143E+02  0.3781E+03
     -1.711  0.2149E+02  0.3795E+03
     -1.648  0.1822E+02  0.3806E+03
     -1.585  0.1940E+02  0.3818E+03
     -1.521  0.1784E+02  0.3830E+03
     -1.458  0.1370E+02  0.3838E+03
     -1.395  0.9747E+01  0.3845E+03
     -1.332  0.7863E+01  0.3849E+03
     -1.269  0.8807E+01  0.3855E+03
     -1.205  0.1220E+02  0.3863E+03
     -1.142  0.1603E+02  0.3873E+03
     -1.079  0.1779E+02  0.3884E+03
     -1.016  0.1672E+02  0.3895E+03
     -0.953  0.1428E+02  0.3904E+03
     -0.890  0.1255E+02  0.3912E+03
     -0.826  0.1235E+02  0.3919E+03
     -0.763  0.1267E+02  0.3927E+03
     -0.700  0.1212E+02  0.3935E+03
     -0.637  0.1082E+02  0.3942E+03
     -0.574  0.1019E+02  0.3948E+03
     -0.510  0.1047E+02  0.3955E+03
     -0.447  0.1019E+02  0.3961E+03
     -0.384  0.8836E+01  0.3967E+03
     -0.321  0.8480E+01  0.3972E+03
     -0.258  0.1126E+02  0.3980E+03
     -0.194  0.1587E+02  0.3990E+03
     -0.131  0.1845E+02  0.4001E+03
     -0.068  0.1704E+02  0.4012E+03
     -0.005  0.1346E+02  0.4020E+03
      0.058  0.1047E+02  0.4027E+03
      0.122  0.9152E+01  0.4033E+03
      0.185  0.9052E+01  0.4039E+03
      0.248  0.9471E+01  0.4045E+03
      0.311  0.9980E+01  0.4051E+03
      0.374  0.1049E+02  0.4058E+03
      0.438  0.1118E+02  0.4065E+03
      0.501  0.1213E+02  0.4072E+03
      0.564  0.1328E+02  0.4081E+03
      0.627  0.1451E+02  0.4090E+03
      0.690  0.1562E+02  0.4100E+03
      0.754  0.1585E+02  0.4110E+03
      0.817  0.1433E+02  0.4119E+03
      0.880  0.1107E+02  0.4126E+03
      0.943  0.7223E+01  0.4130E+03
      1.006  0.4341E+01  0.4133E+03
      1.070  0.3951E+01  0.4136E+03
      1.133  0.6593E+01  0.4140E+03
      1.196  0.1052E+02  0.4146E+03
      1.259  0.1251E+02  0.4154E+03
      1.322  0.1096E+02  0.4161E+03
      1.386  0.8023E+01  0.4166E+03
      1.449  0.7922E+01  0.4171E+03
      1.512  0.1241E+02  0.4179E+03
      1.575  0.1826E+02  0.4191E+03
      1.638  0.2057E+02  0.4204E+03
      1.701  0.1793E+02  0.4215E+03
      1.765  0.1271E+02  0.4223E+03
      1.828  0.7351E+01  0.4228E+03
      1.891  0.2978E+01  0.4230E+03
      1.954  0.6990E+00  0.4230E+03
      2.017  0.1732E+01  0.4231E+03
      2.081  0.6317E+01  0.4235E+03
      2.144  0.1319E+02  0.4243E+03
      2.207  0.1945E+02  0.4256E+03
      2.270  0.2120E+02  0.4269E+03
      2.333  0.1647E+02  0.4280E+03
      2.397  0.7953E+01  0.4285E+03
      2.460  0.1470E+01  0.4285E+03
      2.523  0.1108E+01  0.4286E+03
      2.586  0.6432E+01  0.4290E+03
      2.649  0.1365E+02  0.4299E+03
      2.713  0.1841E+02  0.4311E+03
      2.776  0.1815E+02  0.4322E+03
      2.839  0.1348E+02  0.4330E+03
      2.902  0.8084E+01  0.4336E+03
      2.965  0.5888E+01  0.4339E+03
      3.029  0.7796E+01  0.4344E+03
      3.092  0.1175E+02  0.4352E+03
      3.155  0.1535E+02  0.4361E+03
      3.218  0.1709E+02  0.4372E+03
      3.281  0.1638E+02  0.4383E+03
      3.345  0.1431E+02  0.4392E+03
      3.408  0.1370E+02  0.4400E+03
      3.471  0.1655E+02  0.4411E+03
      3.534  0.2157E+02  0.4424E+03
      3.597  0.2551E+02  0.4440E+03
      3.661  0.2605E+02  0.4457E+03
      3.724  0.2292E+02  0.4471E+03
      3.787  0.1770E+02  0.4483E+03
      3.850  0.1293E+02  0.4491E+03
      3.913  0.1012E+02  0.4497E+03
      3.976  0.8967E+01  0.4503E+03
      4.040  0.9059E+01  0.4509E+03
      4.103  0.1040E+02  0.4515E+03
      4.166  0.1150E+02  0.4522E+03
      4.229  0.1025E+02  0.4529E+03
      4.292  0.8194E+01  0.4534E+03
      4.356  0.1024E+02  0.4540E+03
      4.419  0.1800E+02  0.4552E+03
      4.482  0.2587E+02  0.4568E+03
      4.545  0.2656E+02  0.4585E+03
      4.608  0.1953E+02  0.4597E+03
      4.672  0.1134E+02  0.4605E+03
      4.735  0.7691E+01  0.4609E+03
      4.798  0.8084E+01  0.4614E+03
      4.861  0.9277E+01  0.4620E+03
      4.924  0.1137E+02  0.4628E+03
      4.988  0.1729E+02  0.4638E+03
      5.051  0.2649E+02  0.4655E+03
      5.114  0.3268E+02  0.4676E+03
      5.177  0.3043E+02  0.4695E+03
      5.240  0.2230E+02  0.4709E+03
      5.304  0.1679E+02  0.4720E+03
      5.367  0.1918E+02  0.4732E+03
      5.430  0.2583E+02  0.4748E+03
      5.493  0.2833E+02  0.4766E+03
      5.556  0.2233E+02  0.4780E+03
      5.620  0.1142E+02  0.4787E+03
      5.683  0.2550E+01  0.4789E+03
      5.746 -0.5404E+00  0.4789E+03
      5.809  0.8858E+00  0.4789E+03
      5.872  0.3386E+01  0.4791E+03
      5.936  0.4547E+01  0.4794E+03
      5.999  0.4044E+01  0.4797E+03
      6.062  0.2775E+01  0.4799E+03
      6.125  0.1567E+01  0.4800E+03
      6.188  0.6925E+00  0.4800E+03
      6.252  0.1505E+00  0.4800E+03
      6.315 -0.8576E-01  0.4800E+03
      6.378 -0.1016E+00  0.4800E+03
      6.441 -0.3938E-01  0.4800E+03
      6.504  0.3775E-02  0.4800E+03
      6.567  0.1281E-01  0.4800E+03
      6.631  0.7857E-02  0.4800E+03
      6.694  0.2951E-02  0.4800E+03
      6.757  0.7884E-03  0.4800E+03
      6.820  0.1582E-03  0.4800E+03
      6.883  0.2449E-04  0.4800E+03
      6.947  0.2970E-05  0.4800E+03
      7.010  0.2850E-06  0.4800E+03
      7.073  0.2180E-07  0.4800E+03
      7.136  0.1335E-08  0.4800E+03
      7.199  0.6572E-10  0.4800E+03
      7.263  0.2608E-11  0.4800E+03
      7.326  0.8345E-13  0.4800E+03
      7.389  0.2196E-14  0.4800E+03
      7.452  0.0000E+00  0.4800E+03
      7.515  0.0000E+00  0.4800E+03
      7.579  0.0000E+00  0.4800E+03
      7.642  0.0000E+00  0.4800E+03
      7.705  0.0000E+00  0.4800E+03
      7.768  0.0000E+00  0.4800E+03
      7.831  0.0000E+00  0.4800E+03
      7.895  0.0000E+00  0.4800E+03
      7.958  0.0000E+00  0.4800E+03
      8.021  0.0000E+00  0.4800E+03
      8.084  0.0000E+00  0.4800E+03
