   36   36    1    1
  0.3666455E+02  0.7700375E-09  0.7700375E-09  0.2226000E-08  0.5000000E-15
  1.000000000000000E-004
  CAR 
 unknown system                          
    396      8    240
 
  0.1250000E+00  0.1250000E+00  0.0000000E+00  0.1250000E+00
    1       -8.874281   1.000000
    2       -7.327828   1.000000
    3       -7.049897   1.000000
    4       -7.043711   1.000000
    5       -6.065787   1.000000
    6       -6.059647   1.000000
    7       -5.813041   1.000000
    8       -5.806194   1.000000
    9       -5.612507   1.000000
   10       -5.433707   1.000000
   11       -5.300110   1.000000
   12       -5.293470   1.000000
   13       -5.081430   1.000000
   14       -5.079196   1.000000
   15       -4.980796   1.000000
   16       -4.899434   1.000000
   17       -4.681358   1.000000
   18       -4.655247   1.000000
   19       -4.645533   1.000000
   20       -4.625320   1.000000
   21       -4.618133   1.000000
   22       -4.571600   1.000000
   23       -4.501650   1.000000
   24       -4.442714   1.000000
   25       -4.441270   1.000000
   26       -4.379826   1.000000
   27       -4.366270   1.000000
   28       -4.362171   1.000000
   29       -4.327207   1.000000
   30       -4.322078   1.000000
   31       -4.315887   1.000000
   32       -4.305279   1.000000
   33       -4.298265   1.000000
   34       -4.230943   1.000000
   35       -4.225208   1.000000
   36       -4.222040   1.000000
   37       -4.215946   1.000000
   38       -4.206870   1.000000
   39       -4.127078   1.000000
   40       -4.123224   1.000000
   41       -4.074937   1.000000
   42       -4.059049   1.000000
   43       -4.034475   1.000000
   44       -4.027986   1.000000
   45       -3.940703   1.000000
   46       -3.830222   1.000000
   47       -3.826840   1.000000
   48       -3.816069   1.000000
   49       -3.810200   1.000000
   50       -3.777682   1.000000
   51       -3.750577   1.000000
   52       -3.729962   1.000000
   53       -3.723410   1.000000
   54       -3.721284   1.000000
   55       -3.678744   1.000000
   56       -3.612043   1.000000
   57       -3.610365   1.000000
   58       -3.591037   1.000000
   59       -3.551402   1.000000
   60       -3.547631   1.000000
   61       -3.542619   1.000000
   62       -3.519338   1.000000
   63       -3.498614   1.000000
   64       -3.492759   1.000000
   65       -3.489491   1.000000
   66       -3.474876   1.000000
   67       -3.467061   1.000000
   68       -3.462037   1.000000
   69       -3.410839   1.000000
   70       -3.408058   1.000000
   71       -3.402705   1.000000
   72       -3.306329   1.000000
   73       -3.296821   1.000000
   74       -3.285926   1.000000
   75       -3.277187   1.000000
   76       -3.250127   1.000000
   77       -3.237002   1.000000
   78       -3.231777   1.000000
   79       -3.197048   1.000000
   80       -3.192030   1.000000
   81       -3.183102   1.000000
   82       -3.175159   1.000000
   83       -3.169672   1.000000
   84       -3.164693   1.000000
   85       -3.147815   1.000000
   86       -3.144686   1.000000
   87       -3.139636   1.000000
   88       -3.134865   1.000000
   89       -3.131514   1.000000
   90       -3.121044   1.000000
   91       -3.112106   1.000000
   92       -3.102967   1.000000
   93       -3.094620   1.000000
   94       -3.081258   1.000000
   95       -3.065063   1.000000
   96       -3.061090   1.000000
   97       -3.015580   1.000000
   98       -3.011607   1.000000
   99       -2.965215   1.000000
  100       -2.914102   1.000000
  101       -2.911599   1.000000
  102       -2.879351   1.000000
  103       -2.872927   1.000000
  104       -2.768257   1.000000
  105       -2.758007   1.000000
  106       -2.751792   1.000000
  107       -2.748870   1.000000
  108       -2.719193   1.000000
  109       -2.712967   1.000000
  110       -2.701304   1.000000
  111       -2.696182   1.000000
  112       -2.681785   1.000000
  113       -2.656883   1.000000
  114       -2.655108   1.000000
  115       -2.649986   1.000000
  116       -2.645442   1.000000
  117       -2.621421   1.000000
  118       -2.617875   1.000000
  119       -2.614771   1.000000
  120       -2.610920   1.000000
  121       -2.597459   1.000000
  122       -2.592803   1.000000
  123       -2.571433   1.000000
  124       -2.550945   1.000000
  125       -2.545409   1.000000
  126       -2.542319   1.000000
  127       -2.538737   1.000000
  128       -2.524841   1.000000
  129       -2.523453   1.000000
  130       -2.518961   1.000000
  131       -2.515581   1.000000
  132       -2.511419   1.000000
  133       -2.507236   1.000000
  134       -2.505311   1.000000
  135       -2.489884   1.000000
  136       -2.486983   1.000000
  137       -2.443970   1.000000
  138       -2.427072   1.000000
  139       -2.394367   1.000000
  140       -2.368900   1.000000
  141       -2.360561   1.000000
  142       -2.354960   1.000000
  143       -2.337253   1.000000
  144       -2.325410   1.000000
  145       -2.321600   1.000000
  146       -2.321479   1.000000
  147       -2.318925   1.000000
  148       -2.316341   1.000000
  149       -2.313565   1.000000
  150       -2.302491   1.000000
  151       -2.276132   1.000000
  152       -2.274288   1.000000
  153       -2.226811   1.000000
  154       -2.195471   1.000000
  155       -2.193501   1.000000
  156       -2.184624   1.000000
  157       -2.182877   1.000000
  158       -2.173311   1.000000
  159       -2.169651   1.000000
  160       -2.159435   1.000000
  161       -2.152718   1.000000
  162       -2.150764   1.000000
  163       -2.149143   1.000000
  164       -2.147585   1.000000
  165       -2.146072   1.000000
  166       -2.137565   1.000000
  167       -2.135113   1.000000
  168       -2.133001   1.000000
  169       -2.108730   1.000000
  170       -2.106933   1.000000
  171       -2.071017   1.000000
  172       -2.068274   1.000000
  173       -2.066656   1.000000
  174       -2.061781   1.000000
  175       -2.058931   1.000000
  176       -2.021839   1.000000
  177       -1.986924   1.000000
  178       -1.985501   1.000000
  179       -1.983088   1.000000
  180       -1.979566   1.000000
  181       -1.975267   1.000000
  182       -1.970234   1.000000
  183       -1.967444   1.000000
  184       -1.953371   1.000000
  185       -1.933069   1.000000
  186       -1.926292   1.000000
  187       -1.923609   1.000000
  188       -1.922445   1.000000
  189       -1.913148   1.000000
  190       -1.909338   1.000000
  191       -1.903574   1.000000
  192       -1.860405   1.000000
  193       -1.440468   1.000000
  194       -1.437140   1.000000
  195       -1.181522   0.999988
  196       -1.180064   0.999988
  197       -1.102061   0.999888
  198       -0.824572   0.996869
  199       -0.716057   1.031128
  200       -0.488493   0.637972
  201       -0.484433   0.617238
  202       -0.215455  -0.034678
  203       -0.209587  -0.031869
  204        0.645564   0.000000
  205        0.723888   0.000000
  206        0.831875   0.000000
  207        1.213307   0.000000
  208        1.219397   0.000000
  209        1.655393   0.000000
  210        1.657139   0.000000
  211        1.755576   0.000000
  212        1.767333   0.000000
  213        2.971541   0.000000
  214        3.034959   0.000000
  215        3.039109   0.000000
  216        3.171365   0.000000
  217        3.208906   0.000000
  218        3.369403   0.000000
  219        3.375084   0.000000
  220        3.515227   0.000000
  221        3.557167   0.000000
  222        3.562561   0.000000
  223        3.688708   0.000000
  224        3.691512   0.000000
  225        4.186141   0.000000
  226        4.408685   0.000000
  227        4.410091   0.000000
  228        4.707361   0.000000
  229        4.710238   0.000000
  230        4.852477   0.000000
  231        5.056739   0.000000
  232        5.061529   0.000000
  233        5.148205   0.000000
  234        5.149871   0.000000
  235        5.207625   0.000000
  236        5.210514   0.000000
  237        5.358235   0.000000
  238        5.378163   0.000000
  239        5.472868   0.000000
  240        5.565649   0.000000
 
  0.3750000E+00  0.1250000E+00  0.0000000E+00  0.1250000E+00
    1       -8.549759   1.000000
    2       -7.921626   1.000000
    3       -7.028081   1.000000
    4       -6.761432   1.000000
    5       -6.476143   1.000000
    6       -6.240654   1.000000
    7       -5.823072   1.000000
    8       -5.555913   1.000000
    9       -5.431833   1.000000
   10       -5.289017   1.000000
   11       -5.194287   1.000000
   12       -5.123374   1.000000
   13       -5.096505   1.000000
   14       -5.086134   1.000000
   15       -4.843533   1.000000
   16       -4.816187   1.000000
   17       -4.810101   1.000000
   18       -4.753329   1.000000
   19       -4.745804   1.000000
   20       -4.706676   1.000000
   21       -4.593539   1.000000
   22       -4.549261   1.000000
   23       -4.535501   1.000000
   24       -4.504679   1.000000
   25       -4.462946   1.000000
   26       -4.439561   1.000000
   27       -4.420001   1.000000
   28       -4.407605   1.000000
   29       -4.401590   1.000000
   30       -4.372914   1.000000
   31       -4.348879   1.000000
   32       -4.338502   1.000000
   33       -4.257946   1.000000
   34       -4.248269   1.000000
   35       -4.170723   1.000000
   36       -4.159378   1.000000
   37       -4.135600   1.000000
   38       -4.131795   1.000000
   39       -4.071226   1.000000
   40       -4.064866   1.000000
   41       -4.044733   1.000000
   42       -4.020765   1.000000
   43       -4.002870   1.000000
   44       -3.946455   1.000000
   45       -3.941687   1.000000
   46       -3.932411   1.000000
   47       -3.881053   1.000000
   48       -3.840960   1.000000
   49       -3.835926   1.000000
   50       -3.811778   1.000000
   51       -3.807724   1.000000
   52       -3.748920   1.000000
   53       -3.712324   1.000000
   54       -3.689921   1.000000
   55       -3.677186   1.000000
   56       -3.663282   1.000000
   57       -3.647952   1.000000
   58       -3.634884   1.000000
   59       -3.599213   1.000000
   60       -3.589455   1.000000
   61       -3.569467   1.000000
   62       -3.565096   1.000000
   63       -3.551191   1.000000
   64       -3.550430   1.000000
   65       -3.528121   1.000000
   66       -3.521674   1.000000
   67       -3.502463   1.000000
   68       -3.436872   1.000000
   69       -3.396446   1.000000
   70       -3.369942   1.000000
   71       -3.352881   1.000000
   72       -3.350347   1.000000
   73       -3.335136   1.000000
   74       -3.318891   1.000000
   75       -3.273997   1.000000
   76       -3.250299   1.000000
   77       -3.227914   1.000000
   78       -3.224883   1.000000
   79       -3.215033   1.000000
   80       -3.209743   1.000000
   81       -3.202961   1.000000
   82       -3.197545   1.000000
   83       -3.191158   1.000000
   84       -3.180277   1.000000
   85       -3.171274   1.000000
   86       -3.154093   1.000000
   87       -3.144708   1.000000
   88       -3.138943   1.000000
   89       -3.116585   1.000000
   90       -3.110035   1.000000
   91       -3.102824   1.000000
   92       -3.090837   1.000000
   93       -3.075381   1.000000
   94       -3.042091   1.000000
   95       -3.033631   1.000000
   96       -3.004699   1.000000
   97       -2.984223   1.000000
   98       -2.976769   1.000000
   99       -2.920516   1.000000
  100       -2.911767   1.000000
  101       -2.871863   1.000000
  102       -2.868086   1.000000
  103       -2.856846   1.000000
  104       -2.854477   1.000000
  105       -2.846792   1.000000
  106       -2.845327   1.000000
  107       -2.825745   1.000000
  108       -2.819415   1.000000
  109       -2.810215   1.000000
  110       -2.789375   1.000000
  111       -2.774419   1.000000
  112       -2.762344   1.000000
  113       -2.738233   1.000000
  114       -2.733601   1.000000
  115       -2.712321   1.000000
  116       -2.706069   1.000000
  117       -2.702760   1.000000
  118       -2.699340   1.000000
  119       -2.680706   1.000000
  120       -2.668327   1.000000
  121       -2.653313   1.000000
  122       -2.648898   1.000000
  123       -2.624259   1.000000
  124       -2.619706   1.000000
  125       -2.610169   1.000000
  126       -2.553623   1.000000
  127       -2.527783   1.000000
  128       -2.505575   1.000000
  129       -2.499759   1.000000
  130       -2.496264   1.000000
  131       -2.478605   1.000000
  132       -2.472702   1.000000
  133       -2.452772   1.000000
  134       -2.441053   1.000000
  135       -2.436649   1.000000
  136       -2.434214   1.000000
  137       -2.425237   1.000000
  138       -2.418511   1.000000
  139       -2.401652   1.000000
  140       -2.392633   1.000000
  141       -2.385776   1.000000
  142       -2.384975   1.000000
  143       -2.374627   1.000000
  144       -2.371322   1.000000
  145       -2.355007   1.000000
  146       -2.345958   1.000000
  147       -2.327424   1.000000
  148       -2.320907   1.000000
  149       -2.290517   1.000000
  150       -2.285554   1.000000
  151       -2.279428   1.000000
  152       -2.248477   1.000000
  153       -2.230865   1.000000
  154       -2.225708   1.000000
  155       -2.216339   1.000000
  156       -2.212460   1.000000
  157       -2.178475   1.000000
  158       -2.173012   1.000000
  159       -2.153801   1.000000
  160       -2.148836   1.000000
  161       -2.147217   1.000000
  162       -2.138968   1.000000
  163       -2.131473   1.000000
  164       -2.128242   1.000000
  165       -2.122829   1.000000
  166       -2.109849   1.000000
  167       -2.090206   1.000000
  168       -2.088871   1.000000
  169       -2.087231   1.000000
  170       -2.085876   1.000000
  171       -2.075680   1.000000
  172       -2.066056   1.000000
  173       -2.062469   1.000000
  174       -2.056936   1.000000
  175       -2.042369   1.000000
  176       -2.022469   1.000000
  177       -2.003249   1.000000
  178       -1.995665   1.000000
  179       -1.982370   1.000000
  180       -1.978669   1.000000
  181       -1.969486   1.000000
  182       -1.938680   1.000000
  183       -1.929540   1.000000
  184       -1.925729   1.000000
  185       -1.910648   1.000000
  186       -1.887312   1.000000
  187       -1.833912   1.000000
  188       -1.798493   1.000000
  189       -1.769229   1.000000
  190       -1.712370   1.000000
  191       -1.672194   1.000000
  192       -1.605762   1.000000
  193       -1.536085   1.000000
  194       -1.183388   0.999989
  195       -1.092834   0.999859
  196       -0.959342   0.997838
  197       -0.787696   1.003109
  198       -0.360901   0.058033
  199       -0.181385  -0.018686
  200       -0.171554  -0.014560
  201       -0.092673   0.003737
  202        0.009165   0.003078
  203        0.151836   0.000215
  204        0.349768   0.000001
  205        0.583072   0.000000
  206        0.782114   0.000000
  207        1.158666   0.000000
  208        1.301266   0.000000
  209        1.573718   0.000000
  210        1.585600   0.000000
  211        2.073395   0.000000
  212        2.167481   0.000000
  213        2.216767   0.000000
  214        2.261756   0.000000
  215        2.273084   0.000000
  216        2.599042   0.000000
  217        2.718075   0.000000
  218        2.800033   0.000000
  219        3.249738   0.000000
  220        3.256707   0.000000
  221        3.529850   0.000000
  222        3.661297   0.000000
  223        3.693442   0.000000
  224        3.744271   0.000000
  225        3.901612   0.000000
  226        3.981724   0.000000
  227        4.168448   0.000000
  228        4.451989   0.000000
  229        4.493637   0.000000
  230        4.532327   0.000000
  231        4.545629   0.000000
  232        4.847853   0.000000
  233        4.999238   0.000000
  234        5.068207   0.000000
  235        5.104710   0.000000
  236        5.181246   0.000000
  237        5.341955   0.000000
  238        5.457178   0.000000
  239        5.471814   0.000000
  240        5.840686   0.000000
 
 -0.3750000E+00  0.1250000E+00  0.0000000E+00  0.1250000E+00
    1       -8.549757   1.000000
    2       -7.921628   1.000000
    3       -7.028066   1.000000
    4       -6.761476   1.000000
    5       -6.476134   1.000000
    6       -6.240628   1.000000
    7       -5.823058   1.000000
    8       -5.555915   1.000000
    9       -5.431866   1.000000
   10       -5.289041   1.000000
   11       -5.194264   1.000000
   12       -5.123292   1.000000
   13       -5.096835   1.000000
   14       -5.085810   1.000000
   15       -4.843514   1.000000
   16       -4.816066   1.000000
   17       -4.810240   1.000000
   18       -4.753151   1.000000
   19       -4.745530   1.000000
   20       -4.707246   1.000000
   21       -4.593530   1.000000
   22       -4.549188   1.000000
   23       -4.535464   1.000000
   24       -4.504669   1.000000
   25       -4.462924   1.000000
   26       -4.439799   1.000000
   27       -4.419943   1.000000
   28       -4.407697   1.000000
   29       -4.401262   1.000000
   30       -4.373200   1.000000
   31       -4.349059   1.000000
   32       -4.338178   1.000000
   33       -4.258415   1.000000
   34       -4.247761   1.000000
   35       -4.170790   1.000000
   36       -4.159555   1.000000
   37       -4.135520   1.000000
   38       -4.131602   1.000000
   39       -4.071655   1.000000
   40       -4.065168   1.000000
   41       -4.044558   1.000000
   42       -4.020111   1.000000
   43       -4.003083   1.000000
   44       -3.946407   1.000000
   45       -3.941554   1.000000
   46       -3.932364   1.000000
   47       -3.881199   1.000000
   48       -3.841179   1.000000
   49       -3.836049   1.000000
   50       -3.811462   1.000000
   51       -3.807577   1.000000
   52       -3.749224   1.000000
   53       -3.712814   1.000000
   54       -3.689741   1.000000
   55       -3.677104   1.000000
   56       -3.663340   1.000000
   57       -3.647715   1.000000
   58       -3.634713   1.000000
   59       -3.599441   1.000000
   60       -3.589560   1.000000
   61       -3.569288   1.000000
   62       -3.564499   1.000000
   63       -3.551580   1.000000
   64       -3.550619   1.000000
   65       -3.528049   1.000000
   66       -3.521835   1.000000
   67       -3.502235   1.000000
   68       -3.436610   1.000000
   69       -3.396368   1.000000
   70       -3.369746   1.000000
   71       -3.352984   1.000000
   72       -3.350407   1.000000
   73       -3.335190   1.000000
   74       -3.318720   1.000000
   75       -3.274342   1.000000
   76       -3.250196   1.000000
   77       -3.228418   1.000000
   78       -3.224692   1.000000
   79       -3.213769   1.000000
   80       -3.210056   1.000000
   81       -3.203913   1.000000
   82       -3.198233   1.000000
   83       -3.192437   1.000000
   84       -3.179115   1.000000
   85       -3.170672   1.000000
   86       -3.153617   1.000000
   87       -3.144303   1.000000
   88       -3.139308   1.000000
   89       -3.117240   1.000000
   90       -3.109596   1.000000
   91       -3.102299   1.000000
   92       -3.090964   1.000000
   93       -3.075692   1.000000
   94       -3.042367   1.000000
   95       -3.033762   1.000000
   96       -3.004573   1.000000
   97       -2.984271   1.000000
   98       -2.976416   1.000000
   99       -2.920662   1.000000
  100       -2.911946   1.000000
  101       -2.872282   1.000000
  102       -2.868019   1.000000
  103       -2.855628   1.000000
  104       -2.854501   1.000000
  105       -2.846676   1.000000
  106       -2.846199   1.000000
  107       -2.826245   1.000000
  108       -2.817857   1.000000
  109       -2.809997   1.000000
  110       -2.789781   1.000000
  111       -2.775201   1.000000
  112       -2.762172   1.000000
  113       -2.738827   1.000000
  114       -2.733773   1.000000
  115       -2.712125   1.000000
  116       -2.706317   1.000000
  117       -2.703127   1.000000
  118       -2.698411   1.000000
  119       -2.681249   1.000000
  120       -2.668259   1.000000
  121       -2.653517   1.000000
  122       -2.648109   1.000000
  123       -2.624569   1.000000
  124       -2.619298   1.000000
  125       -2.610228   1.000000
  126       -2.553726   1.000000
  127       -2.527913   1.000000
  128       -2.505711   1.000000
  129       -2.499716   1.000000
  130       -2.496384   1.000000
  131       -2.478101   1.000000
  132       -2.471810   1.000000
  133       -2.453629   1.000000
  134       -2.440182   1.000000
  135       -2.436056   1.000000
  136       -2.433840   1.000000
  137       -2.425439   1.000000
  138       -2.419378   1.000000
  139       -2.403027   1.000000
  140       -2.392879   1.000000
  141       -2.385255   1.000000
  142       -2.384091   1.000000
  143       -2.375344   1.000000
  144       -2.371836   1.000000
  145       -2.355085   1.000000
  146       -2.345513   1.000000
  147       -2.327369   1.000000
  148       -2.321213   1.000000
  149       -2.290048   1.000000
  150       -2.285124   1.000000
  151       -2.279545   1.000000
  152       -2.248833   1.000000
  153       -2.231280   1.000000
  154       -2.225589   1.000000
  155       -2.216075   1.000000
  156       -2.212388   1.000000
  157       -2.178792   1.000000
  158       -2.172910   1.000000
  159       -2.153665   1.000000
  160       -2.148780   1.000000
  161       -2.147572   1.000000
  162       -2.139015   1.000000
  163       -2.131630   1.000000
  164       -2.128097   1.000000
  165       -2.122518   1.000000
  166       -2.110334   1.000000
  167       -2.089895   1.000000
  168       -2.089014   1.000000
  169       -2.087000   1.000000
  170       -2.085827   1.000000
  171       -2.075718   1.000000
  172       -2.065987   1.000000
  173       -2.062334   1.000000
  174       -2.057258   1.000000
  175       -2.042188   1.000000
  176       -2.022410   1.000000
  177       -2.003354   1.000000
  178       -1.995951   1.000000
  179       -1.982093   1.000000
  180       -1.978639   1.000000
  181       -1.969773   1.000000
  182       -1.938807   1.000000
  183       -1.929243   1.000000
  184       -1.926015   1.000000
  185       -1.910864   1.000000
  186       -1.886240   1.000000
  187       -1.834430   1.000000
  188       -1.798449   1.000000
  189       -1.769131   1.000000
  190       -1.712227   1.000000
  191       -1.672245   1.000000
  192       -1.605740   1.000000
  193       -1.536121   1.000000
  194       -1.183382   0.999989
  195       -1.092807   0.999859
  196       -0.959336   0.997838
  197       -0.787749   1.003096
  198       -0.360868   0.057943
  199       -0.180868  -0.018460
  200       -0.171797  -0.014657
  201       -0.092993   0.003712
  202        0.009159   0.003078
  203        0.151819   0.000215
  204        0.349724   0.000001
  205        0.583108   0.000000
  206        0.782117   0.000000
  207        1.158249   0.000000
  208        1.301363   0.000000
  209        1.574199   0.000000
  210        1.585600   0.000000
  211        2.073398   0.000000
  212        2.167729   0.000000
  213        2.216936   0.000000
  214        2.261837   0.000000
  215        2.272599   0.000000
  216        2.600861   0.000000
  217        2.715541   0.000000
  218        2.800145   0.000000
  219        3.249061   0.000000
  220        3.257515   0.000000
  221        3.529851   0.000000
  222        3.661449   0.000000
  223        3.693551   0.000000
  224        3.744139   0.000000
  225        3.902316   0.000000
  226        3.981513   0.000000
  227        4.168449   0.000000
  228        4.451999   0.000000
  229        4.493618   0.000000
  230        4.531894   0.000000
  231        4.545495   0.000000
  232        4.847416   0.000000
  233        4.999056   0.000000
  234        5.069047   0.000000
  235        5.104739   0.000000
  236        5.181269   0.000000
  237        5.342369   0.000000
  238        5.457499   0.000000
  239        5.481017   0.000000
  240        5.958300   0.000000
 
 -0.1250000E+00  0.1250000E+00  0.0000000E+00  0.1250000E+00
    1       -8.874281   1.000000
    2       -7.327823   1.000000
    3       -7.049259   1.000000
    4       -7.044370   1.000000
    5       -6.065273   1.000000
    6       -6.060118   1.000000
    7       -5.813988   1.000000
    8       -5.805303   1.000000
    9       -5.612442   1.000000
   10       -5.433721   1.000000
   11       -5.300747   1.000000
   12       -5.292785   1.000000
   13       -5.081107   1.000000
   14       -5.079567   1.000000
   15       -4.980771   1.000000
   16       -4.899428   1.000000
   17       -4.681385   1.000000
   18       -4.655245   1.000000
   19       -4.645458   1.000000
   20       -4.625242   1.000000
   21       -4.618168   1.000000
   22       -4.571739   1.000000
   23       -4.501674   1.000000
   24       -4.442931   1.000000
   25       -4.441235   1.000000
   26       -4.379759   1.000000
   27       -4.366127   1.000000
   28       -4.362470   1.000000
   29       -4.326585   1.000000
   30       -4.321354   1.000000
   31       -4.315861   1.000000
   32       -4.305437   1.000000
   33       -4.298950   1.000000
   34       -4.231645   1.000000
   35       -4.225398   1.000000
   36       -4.221731   1.000000
   37       -4.215615   1.000000
   38       -4.206964   1.000000
   39       -4.127099   1.000000
   40       -4.123415   1.000000
   41       -4.074612   1.000000
   42       -4.059080   1.000000
   43       -4.034469   1.000000
   44       -4.028080   1.000000
   45       -3.940607   1.000000
   46       -3.829780   1.000000
   47       -3.827257   1.000000
   48       -3.816468   1.000000
   49       -3.809746   1.000000
   50       -3.777544   1.000000
   51       -3.750314   1.000000
   52       -3.730722   1.000000
   53       -3.723442   1.000000
   54       -3.721253   1.000000
   55       -3.678749   1.000000
   56       -3.612284   1.000000
   57       -3.609856   1.000000
   58       -3.590945   1.000000
   59       -3.551819   1.000000
   60       -3.547154   1.000000
   61       -3.543396   1.000000
   62       -3.518804   1.000000
   63       -3.498807   1.000000
   64       -3.492693   1.000000
   65       -3.489814   1.000000
   66       -3.474681   1.000000
   67       -3.466866   1.000000
   68       -3.461774   1.000000
   69       -3.410765   1.000000
   70       -3.408091   1.000000
   71       -3.402640   1.000000
   72       -3.306207   1.000000
   73       -3.296814   1.000000
   74       -3.284840   1.000000
   75       -3.278413   1.000000
   76       -3.250281   1.000000
   77       -3.237400   1.000000
   78       -3.231392   1.000000
   79       -3.197257   1.000000
   80       -3.190829   1.000000
   81       -3.184586   1.000000
   82       -3.173807   1.000000
   83       -3.170686   1.000000
   84       -3.164268   1.000000
   85       -3.148138   1.000000
   86       -3.144282   1.000000
   87       -3.138801   1.000000
   88       -3.135179   1.000000
   89       -3.132461   1.000000
   90       -3.120745   1.000000
   91       -3.112159   1.000000
   92       -3.103491   1.000000
   93       -3.094062   1.000000
   94       -3.080765   1.000000
   95       -3.065032   1.000000
   96       -3.061565   1.000000
   97       -3.015597   1.000000
   98       -3.011990   1.000000
   99       -2.965638   1.000000
  100       -2.914210   1.000000
  101       -2.911306   1.000000
  102       -2.879837   1.000000
  103       -2.872165   1.000000
  104       -2.768631   1.000000
  105       -2.758275   1.000000
  106       -2.750476   1.000000
  107       -2.749427   1.000000
  108       -2.719153   1.000000
  109       -2.712491   1.000000
  110       -2.701216   1.000000
  111       -2.695253   1.000000
  112       -2.682192   1.000000
  113       -2.656873   1.000000
  114       -2.655484   1.000000
  115       -2.650385   1.000000
  116       -2.645590   1.000000
  117       -2.621774   1.000000
  118       -2.617445   1.000000
  119       -2.614250   1.000000
  120       -2.611108   1.000000
  121       -2.598320   1.000000
  122       -2.592482   1.000000
  123       -2.571534   1.000000
  124       -2.552171   1.000000
  125       -2.545165   1.000000
  126       -2.541595   1.000000
  127       -2.538462   1.000000
  128       -2.524813   1.000000
  129       -2.522962   1.000000
  130       -2.519458   1.000000
  131       -2.515266   1.000000
  132       -2.511207   1.000000
  133       -2.506929   1.000000
  134       -2.504761   1.000000
  135       -2.490525   1.000000
  136       -2.487735   1.000000
  137       -2.443859   1.000000
  138       -2.427165   1.000000
  139       -2.394729   1.000000
  140       -2.369281   1.000000
  141       -2.360578   1.000000
  142       -2.354561   1.000000
  143       -2.336165   1.000000
  144       -2.326518   1.000000
  145       -2.322521   1.000000
  146       -2.320771   1.000000
  147       -2.318926   1.000000
  148       -2.316334   1.000000
  149       -2.313890   1.000000
  150       -2.303073   1.000000
  151       -2.275599   1.000000
  152       -2.274013   1.000000
  153       -2.226671   1.000000
  154       -2.195341   1.000000
  155       -2.193640   1.000000
  156       -2.184882   1.000000
  157       -2.182422   1.000000
  158       -2.173400   1.000000
  159       -2.169131   1.000000
  160       -2.159655   1.000000
  161       -2.152307   1.000000
  162       -2.150601   1.000000
  163       -2.148760   1.000000
  164       -2.147713   1.000000
  165       -2.146437   1.000000
  166       -2.137555   1.000000
  167       -2.135170   1.000000
  168       -2.133324   1.000000
  169       -2.108915   1.000000
  170       -2.106779   1.000000
  171       -2.071372   1.000000
  172       -2.068027   1.000000
  173       -2.067421   1.000000
  174       -2.061771   1.000000
  175       -2.058287   1.000000
  176       -2.021766   1.000000
  177       -1.987259   1.000000
  178       -1.985358   1.000000
  179       -1.982407   1.000000
  180       -1.979913   1.000000
  181       -1.975239   1.000000
  182       -1.970228   1.000000
  183       -1.967356   1.000000
  184       -1.952947   1.000000
  185       -1.933110   1.000000
  186       -1.926299   1.000000
  187       -1.923639   1.000000
  188       -1.922701   1.000000
  189       -1.912499   1.000000
  190       -1.908511   1.000000
  191       -1.904743   1.000000
  192       -1.860950   1.000000
  193       -1.440498   1.000000
  194       -1.436959   1.000000
  195       -1.181457   0.999988
  196       -1.180056   0.999988
  197       -1.102126   0.999889
  198       -0.824504   0.996876
  199       -0.716148   1.031084
  200       -0.488700   0.639021
  201       -0.484353   0.616825
  202       -0.215420  -0.034661
  203       -0.209552  -0.031853
  204        0.645499   0.000000
  205        0.723986   0.000000
  206        0.831743   0.000000
  207        1.213445   0.000000
  208        1.219260   0.000000
  209        1.654700   0.000000
  210        1.657509   0.000000
  211        1.754685   0.000000
  212        1.768797   0.000000
  213        2.971024   0.000000
  214        3.034620   0.000000
  215        3.039911   0.000000
  216        3.171160   0.000000
  217        3.208894   0.000000
  218        3.368293   0.000000
  219        3.376190   0.000000
  220        3.515542   0.000000
  221        3.557792   0.000000
  222        3.561664   0.000000
  223        3.688066   0.000000
  224        3.692082   0.000000
  225        4.186135   0.000000
  226        4.408816   0.000000
  227        4.410255   0.000000
  228        4.707245   0.000000
  229        4.710322   0.000000
  230        4.852483   0.000000
  231        5.056007   0.000000
  232        5.062322   0.000000
  233        5.148124   0.000000
  234        5.150010   0.000000
  235        5.206390   0.000000
  236        5.210719   0.000000
  237        5.359951   0.000000
  238        5.383534   0.000000
  239        5.473501   0.000000
  240        5.571801   0.000000
 
  0.1250000E+00  0.3750000E+00  0.0000000E+00  0.1250000E+00
    1       -8.549876   1.000000
    2       -7.921753   1.000000
    3       -7.026928   1.000000
    4       -6.762782   1.000000
    5       -6.474033   1.000000
    6       -6.241938   1.000000
    7       -5.823635   1.000000
    8       -5.556355   1.000000
    9       -5.432300   1.000000
   10       -5.289206   1.000000
   11       -5.194421   1.000000
   12       -5.123655   1.000000
   13       -5.094550   1.000000
   14       -5.087109   1.000000
   15       -4.844469   1.000000
   16       -4.815924   1.000000
   17       -4.809627   1.000000
   18       -4.754379   1.000000
   19       -4.746730   1.000000
   20       -4.705536   1.000000
   21       -4.596334   1.000000
   22       -4.544771   1.000000
   23       -4.535161   1.000000
   24       -4.499194   1.000000
   25       -4.468592   1.000000
   26       -4.431448   1.000000
   27       -4.420830   1.000000
   28       -4.412595   1.000000
   29       -4.398976   1.000000
   30       -4.369490   1.000000
   31       -4.350864   1.000000
   32       -4.345444   1.000000
   33       -4.255615   1.000000
   34       -4.248816   1.000000
   35       -4.172453   1.000000
   36       -4.161663   1.000000
   37       -4.137388   1.000000
   38       -4.129438   1.000000
   39       -4.067642   1.000000
   40       -4.064855   1.000000
   41       -4.046198   1.000000
   42       -4.020141   1.000000
   43       -4.010605   1.000000
   44       -3.945301   1.000000
   45       -3.940246   1.000000
   46       -3.930343   1.000000
   47       -3.877089   1.000000
   48       -3.838204   1.000000
   49       -3.835168   1.000000
   50       -3.816265   1.000000
   51       -3.807724   1.000000
   52       -3.751055   1.000000
   53       -3.706299   1.000000
   54       -3.694903   1.000000
   55       -3.682584   1.000000
   56       -3.658711   1.000000
   57       -3.651385   1.000000
   58       -3.637687   1.000000
   59       -3.591197   1.000000
   60       -3.586835   1.000000
   61       -3.569095   1.000000
   62       -3.564152   1.000000
   63       -3.551350   1.000000
   64       -3.543860   1.000000
   65       -3.532942   1.000000
   66       -3.525578   1.000000
   67       -3.509746   1.000000
   68       -3.435858   1.000000
   69       -3.396593   1.000000
   70       -3.365936   1.000000
   71       -3.357313   1.000000
   72       -3.351654   1.000000
   73       -3.332884   1.000000
   74       -3.321486   1.000000
   75       -3.272795   1.000000
   76       -3.252218   1.000000
   77       -3.226159   1.000000
   78       -3.223363   1.000000
   79       -3.212573   1.000000
   80       -3.208163   1.000000
   81       -3.202182   1.000000
   82       -3.198677   1.000000
   83       -3.189517   1.000000
   84       -3.186072   1.000000
   85       -3.169614   1.000000
   86       -3.157421   1.000000
   87       -3.142908   1.000000
   88       -3.140548   1.000000
   89       -3.115950   1.000000
   90       -3.110778   1.000000
   91       -3.105052   1.000000
   92       -3.083346   1.000000
   93       -3.076367   1.000000
   94       -3.042754   1.000000
   95       -3.035645   1.000000
   96       -3.007963   1.000000
   97       -2.982502   1.000000
   98       -2.979591   1.000000
   99       -2.919775   1.000000
  100       -2.906758   1.000000
  101       -2.872265   1.000000
  102       -2.870369   1.000000
  103       -2.860503   1.000000
  104       -2.853243   1.000000
  105       -2.846282   1.000000
  106       -2.842377   1.000000
  107       -2.824896   1.000000
  108       -2.819055   1.000000
  109       -2.806272   1.000000
  110       -2.790159   1.000000
  111       -2.781091   1.000000
  112       -2.766676   1.000000
  113       -2.735094   1.000000
  114       -2.719319   1.000000
  115       -2.716646   1.000000
  116       -2.710440   1.000000
  117       -2.707129   1.000000
  118       -2.699764   1.000000
  119       -2.675524   1.000000
  120       -2.668069   1.000000
  121       -2.653932   1.000000
  122       -2.635327   1.000000
  123       -2.628203   1.000000
  124       -2.620380   1.000000
  125       -2.612847   1.000000
  126       -2.552955   1.000000
  127       -2.523538   1.000000
  128       -2.507551   1.000000
  129       -2.499287   1.000000
  130       -2.496446   1.000000
  131       -2.481185   1.000000
  132       -2.469700   1.000000
  133       -2.452877   1.000000
  134       -2.442807   1.000000
  135       -2.433271   1.000000
  136       -2.430399   1.000000
  137       -2.425730   1.000000
  138       -2.419897   1.000000
  139       -2.398916   1.000000
  140       -2.393271   1.000000
  141       -2.390244   1.000000
  142       -2.386607   1.000000
  143       -2.373065   1.000000
  144       -2.371130   1.000000
  145       -2.350825   1.000000
  146       -2.347002   1.000000
  147       -2.327949   1.000000
  148       -2.320548   1.000000
  149       -2.292326   1.000000
  150       -2.286744   1.000000
  151       -2.280442   1.000000
  152       -2.247962   1.000000
  153       -2.230298   1.000000
  154       -2.224817   1.000000
  155       -2.215352   1.000000
  156       -2.212924   1.000000
  157       -2.177342   1.000000
  158       -2.172391   1.000000
  159       -2.150182   1.000000
  160       -2.149120   1.000000
  161       -2.147395   1.000000
  162       -2.138600   1.000000
  163       -2.133017   1.000000
  164       -2.129087   1.000000
  165       -2.124832   1.000000
  166       -2.110549   1.000000
  167       -2.092165   1.000000
  168       -2.089620   1.000000
  169       -2.087219   1.000000
  170       -2.086386   1.000000
  171       -2.076977   1.000000
  172       -2.063855   1.000000
  173       -2.061693   1.000000
  174       -2.057289   1.000000
  175       -2.042726   1.000000
  176       -2.022955   1.000000
  177       -2.004039   1.000000
  178       -1.993925   1.000000
  179       -1.983368   1.000000
  180       -1.979579   1.000000
  181       -1.969456   1.000000
  182       -1.938281   1.000000
  183       -1.928685   1.000000
  184       -1.925681   1.000000
  185       -1.910269   1.000000
  186       -1.886015   1.000000
  187       -1.835894   1.000000
  188       -1.798934   1.000000
  189       -1.770999   1.000000
  190       -1.712512   1.000000
  191       -1.672650   1.000000
  192       -1.606392   1.000000
  193       -1.537037   1.000000
  194       -1.184395   0.999989
  195       -1.094269   0.999864
  196       -0.959893   0.997856
  197       -0.788087   1.003013
  198       -0.361773   0.060465
  199       -0.181410  -0.018697
  200       -0.170029  -0.013952
  201       -0.093978   0.003633
  202        0.007402   0.003144
  203        0.149382   0.000228
  204        0.351653   0.000000
  205        0.583119   0.000000
  206        0.781267   0.000000
  207        1.158133   0.000000
  208        1.304408   0.000000
  209        1.570616   0.000000
  210        1.587924   0.000000
  211        2.071306   0.000000
  212        2.167236   0.000000
  213        2.230580   0.000000
  214        2.254446   0.000000
  215        2.269206   0.000000
  216        2.601907   0.000000
  217        2.715175   0.000000
  218        2.800205   0.000000
  219        3.250228   0.000000
  220        3.257546   0.000000
  221        3.529781   0.000000
  222        3.660358   0.000000
  223        3.691743   0.000000
  224        3.747223   0.000000
  225        3.902962   0.000000
  226        3.980398   0.000000
  227        4.168216   0.000000
  228        4.460188   0.000000
  229        4.493471   0.000000
  230        4.524807   0.000000
  231        4.547656   0.000000
  232        4.848412   0.000000
  233        4.998808   0.000000
  234        5.068874   0.000000
  235        5.104682   0.000000
  236        5.181058   0.000000
  237        5.341313   0.000000
  238        5.456815   0.000000
  239        5.483426   0.000000
  240        5.915879   0.000000
 
  0.3750000E+00  0.3750000E+00  0.0000000E+00  0.1250000E+00
    1       -8.229825   1.000000
    2       -7.616380   1.000000
    3       -7.609480   1.000000
    4       -7.025622   1.000000
    5       -6.731877   1.000000
    6       -6.196874   1.000000
    7       -6.188230   1.000000
    8       -5.688072   1.000000
    9       -5.101926   1.000000
   10       -5.094927   1.000000
   11       -4.960252   1.000000
   12       -4.918518   1.000000
   13       -4.910096   1.000000
   14       -4.866619   1.000000
   15       -4.838133   1.000000
   16       -4.834798   1.000000
   17       -4.808009   1.000000
   18       -4.657894   1.000000
   19       -4.642367   1.000000
   20       -4.637902   1.000000
   21       -4.620775   1.000000
   22       -4.616202   1.000000
   23       -4.496018   1.000000
   24       -4.492945   1.000000
   25       -4.462953   1.000000
   26       -4.456266   1.000000
   27       -4.426115   1.000000
   28       -4.419816   1.000000
   29       -4.408095   1.000000
   30       -4.405644   1.000000
   31       -4.337403   1.000000
   32       -4.316965   1.000000
   33       -4.312622   1.000000
   34       -4.307809   1.000000
   35       -4.262369   1.000000
   36       -4.257763   1.000000
   37       -4.237778   1.000000
   38       -4.181104   1.000000
   39       -4.179247   1.000000
   40       -4.170712   1.000000
   41       -4.124713   1.000000
   42       -4.002686   1.000000
   43       -3.964117   1.000000
   44       -3.926310   1.000000
   45       -3.923188   1.000000
   46       -3.861314   1.000000
   47       -3.850886   1.000000
   48       -3.836380   1.000000
   49       -3.830411   1.000000
   50       -3.823214   1.000000
   51       -3.808419   1.000000
   52       -3.803060   1.000000
   53       -3.768637   1.000000
   54       -3.760017   1.000000
   55       -3.727034   1.000000
   56       -3.642599   1.000000
   57       -3.633804   1.000000
   58       -3.626254   1.000000
   59       -3.618377   1.000000
   60       -3.580967   1.000000
   61       -3.573767   1.000000
   62       -3.538924   1.000000
   63       -3.537024   1.000000
   64       -3.496321   1.000000
   65       -3.488047   1.000000
   66       -3.470742   1.000000
   67       -3.464668   1.000000
   68       -3.450333   1.000000
   69       -3.441715   1.000000
   70       -3.393088   1.000000
   71       -3.384289   1.000000
   72       -3.363828   1.000000
   73       -3.360471   1.000000
   74       -3.350111   1.000000
   75       -3.339847   1.000000
   76       -3.305531   1.000000
   77       -3.271034   1.000000
   78       -3.264560   1.000000
   79       -3.260308   1.000000
   80       -3.255890   1.000000
   81       -3.253188   1.000000
   82       -3.245196   1.000000
   83       -3.187716   1.000000
   84       -3.176911   1.000000
   85       -3.172664   1.000000
   86       -3.154952   1.000000
   87       -3.135222   1.000000
   88       -3.132751   1.000000
   89       -3.104013   1.000000
   90       -3.099382   1.000000
   91       -3.075980   1.000000
   92       -3.071046   1.000000
   93       -3.067054   1.000000
   94       -3.030215   1.000000
   95       -3.027819   1.000000
   96       -2.978214   1.000000
   97       -2.965267   1.000000
   98       -2.962453   1.000000
   99       -2.944337   1.000000
  100       -2.928859   1.000000
  101       -2.923376   1.000000
  102       -2.889108   1.000000
  103       -2.868835   1.000000
  104       -2.863727   1.000000
  105       -2.860966   1.000000
  106       -2.857175   1.000000
  107       -2.847043   1.000000
  108       -2.845057   1.000000
  109       -2.838151   1.000000
  110       -2.828102   1.000000
  111       -2.777509   1.000000
  112       -2.773202   1.000000
  113       -2.770950   1.000000
  114       -2.763797   1.000000
  115       -2.746443   1.000000
  116       -2.738316   1.000000
  117       -2.722225   1.000000
  118       -2.720115   1.000000
  119       -2.715084   1.000000
  120       -2.712682   1.000000
  121       -2.706397   1.000000
  122       -2.702686   1.000000
  123       -2.694973   1.000000
  124       -2.683389   1.000000
  125       -2.681335   1.000000
  126       -2.680043   1.000000
  127       -2.647709   1.000000
  128       -2.625216   1.000000
  129       -2.621438   1.000000
  130       -2.598739   1.000000
  131       -2.540823   1.000000
  132       -2.536920   1.000000
  133       -2.489218   1.000000
  134       -2.485819   1.000000
  135       -2.440169   1.000000
  136       -2.438151   1.000000
  137       -2.437296   1.000000
  138       -2.405027   1.000000
  139       -2.383913   1.000000
  140       -2.379917   1.000000
  141       -2.377445   1.000000
  142       -2.374910   1.000000
  143       -2.367054   1.000000
  144       -2.362462   1.000000
  145       -2.356854   1.000000
  146       -2.338781   1.000000
  147       -2.337732   1.000000
  148       -2.298938   1.000000
  149       -2.295364   1.000000
  150       -2.278588   1.000000
  151       -2.249349   1.000000
  152       -2.214857   1.000000
  153       -2.210732   1.000000
  154       -2.198934   1.000000
  155       -2.194937   1.000000
  156       -2.192361   1.000000
  157       -2.189406   1.000000
  158       -2.186328   1.000000
  159       -2.167108   1.000000
  160       -2.165664   1.000000
  161       -2.163823   1.000000
  162       -2.162577   1.000000
  163       -2.154108   1.000000
  164       -2.152652   1.000000
  165       -2.149203   1.000000
  166       -2.147860   1.000000
  167       -2.074885   1.000000
  168       -2.069960   1.000000
  169       -2.058046   1.000000
  170       -2.041540   1.000000
  171       -2.040805   1.000000
  172       -2.035172   1.000000
  173       -2.025685   1.000000
  174       -2.013444   1.000000
  175       -2.013096   1.000000
  176       -1.997546   1.000000
  177       -1.997021   1.000000
  178       -1.974801   1.000000
  179       -1.972241   1.000000
  180       -1.969902   1.000000
  181       -1.966235   1.000000
  182       -1.956803   1.000000
  183       -1.955580   1.000000
  184       -1.945061   1.000000
  185       -1.935530   1.000000
  186       -1.889789   1.000000
  187       -1.710698   1.000000
  188       -1.617541   1.000000
  189       -1.585638   1.000000
  190       -1.339478   1.000000
  191       -1.337984   1.000000
  192       -1.005305   0.999011
  193       -1.002911   0.998965
  194       -0.858121   0.995117
  195       -0.674602   1.048427
  196       -0.673770   1.048659
  197       -0.528233   0.821933
  198       -0.523299   0.801481
  199        0.040621   0.001992
  200        0.248556   0.000015
  201        0.253105   0.000013
  202        0.437096   0.000000
  203        0.438582   0.000000
  204        0.529928   0.000000
  205        0.533942   0.000000
  206        0.710644   0.000000
  207        0.720496   0.000000
  208        0.940100   0.000000
  209        0.943530   0.000000
  210        1.362249   0.000000
  211        1.510806   0.000000
  212        1.522120   0.000000
  213        1.581427   0.000000
  214        1.796860   0.000000
  215        2.325023   0.000000
  216        2.647600   0.000000
  217        2.654089   0.000000
  218        2.765366   0.000000
  219        2.773239   0.000000
  220        3.107994   0.000000
  221        3.110240   0.000000
  222        3.419769   0.000000
  223        3.472832   0.000000
  224        3.551843   0.000000
  225        3.553089   0.000000
  226        3.850136   0.000000
  227        4.151033   0.000000
  228        4.158557   0.000000
  229        4.351387   0.000000
  230        4.486370   0.000000
  231        4.488711   0.000000
  232        4.800643   0.000000
  233        5.053001   0.000000
  234        5.055711   0.000000
  235        5.123221   0.000000
  236        5.412034   0.000000
  237        5.412574   0.000000
  238        5.496148   0.000000
  239        5.504778   0.000000
  240        5.509188   0.000000
 
 -0.3750000E+00  0.3750000E+00  0.0000000E+00  0.1250000E+00
    1       -8.229822   1.000000
    2       -7.615666   1.000000
    3       -7.610216   1.000000
    4       -7.025587   1.000000
    5       -6.731883   1.000000
    6       -6.197976   1.000000
    7       -6.187142   1.000000
    8       -5.688052   1.000000
    9       -5.102097   1.000000
   10       -5.094832   1.000000
   11       -4.960228   1.000000
   12       -4.918793   1.000000
   13       -4.909602   1.000000
   14       -4.866530   1.000000
   15       -4.837304   1.000000
   16       -4.834924   1.000000
   17       -4.808974   1.000000
   18       -4.657952   1.000000
   19       -4.642672   1.000000
   20       -4.637382   1.000000
   21       -4.620274   1.000000
   22       -4.616866   1.000000
   23       -4.495693   1.000000
   24       -4.493237   1.000000
   25       -4.462996   1.000000
   26       -4.455956   1.000000
   27       -4.425826   1.000000
   28       -4.419839   1.000000
   29       -4.408769   1.000000
   30       -4.405692   1.000000
   31       -4.337539   1.000000
   32       -4.317099   1.000000
   33       -4.312439   1.000000
   34       -4.307873   1.000000
   35       -4.262411   1.000000
   36       -4.257641   1.000000
   37       -4.237585   1.000000
   38       -4.181131   1.000000
   39       -4.178944   1.000000
   40       -4.170989   1.000000
   41       -4.124704   1.000000
   42       -4.002762   1.000000
   43       -3.963968   1.000000
   44       -3.926061   1.000000
   45       -3.923238   1.000000
   46       -3.861922   1.000000
   47       -3.851300   1.000000
   48       -3.836347   1.000000
   49       -3.830066   1.000000
   50       -3.824129   1.000000
   51       -3.807739   1.000000
   52       -3.803115   1.000000
   53       -3.768313   1.000000
   54       -3.759420   1.000000
   55       -3.727066   1.000000
   56       -3.642686   1.000000
   57       -3.633928   1.000000
   58       -3.625735   1.000000
   59       -3.618538   1.000000
   60       -3.581370   1.000000
   61       -3.573843   1.000000
   62       -3.539106   1.000000
   63       -3.536812   1.000000
   64       -3.498012   1.000000
   65       -3.487238   1.000000
   66       -3.471615   1.000000
   67       -3.462462   1.000000
   68       -3.450284   1.000000
   69       -3.440910   1.000000
   70       -3.394363   1.000000
   71       -3.384441   1.000000
   72       -3.363762   1.000000
   73       -3.360005   1.000000
   74       -3.350043   1.000000
   75       -3.340144   1.000000
   76       -3.305850   1.000000
   77       -3.271221   1.000000
   78       -3.264092   1.000000
   79       -3.260777   1.000000
   80       -3.255525   1.000000
   81       -3.253117   1.000000
   82       -3.245019   1.000000
   83       -3.189097   1.000000
   84       -3.176487   1.000000
   85       -3.171946   1.000000
   86       -3.153555   1.000000
   87       -3.135198   1.000000
   88       -3.133136   1.000000
   89       -3.104082   1.000000
   90       -3.099912   1.000000
   91       -3.076490   1.000000
   92       -3.070630   1.000000
   93       -3.067524   1.000000
   94       -3.031062   1.000000
   95       -3.027038   1.000000
   96       -2.978125   1.000000
   97       -2.965141   1.000000
   98       -2.962466   1.000000
   99       -2.944681   1.000000
  100       -2.929081   1.000000
  101       -2.923477   1.000000
  102       -2.889464   1.000000
  103       -2.869415   1.000000
  104       -2.863436   1.000000
  105       -2.860784   1.000000
  106       -2.856980   1.000000
  107       -2.846354   1.000000
  108       -2.845249   1.000000
  109       -2.838816   1.000000
  110       -2.826750   1.000000
  111       -2.777033   1.000000
  112       -2.773684   1.000000
  113       -2.770843   1.000000
  114       -2.763027   1.000000
  115       -2.747148   1.000000
  116       -2.738326   1.000000
  117       -2.722995   1.000000
  118       -2.719161   1.000000
  119       -2.713846   1.000000
  120       -2.712230   1.000000
  121       -2.706497   1.000000
  122       -2.703165   1.000000
  123       -2.696499   1.000000
  124       -2.683657   1.000000
  125       -2.681000   1.000000
  126       -2.680116   1.000000
  127       -2.647990   1.000000
  128       -2.623452   1.000000
  129       -2.622373   1.000000
  130       -2.599729   1.000000
  131       -2.541012   1.000000
  132       -2.536022   1.000000
  133       -2.488916   1.000000
  134       -2.486068   1.000000
  135       -2.440217   1.000000
  136       -2.438552   1.000000
  137       -2.437590   1.000000
  138       -2.404830   1.000000
  139       -2.383457   1.000000
  140       -2.380729   1.000000
  141       -2.378236   1.000000
  142       -2.374552   1.000000
  143       -2.366554   1.000000
  144       -2.362843   1.000000
  145       -2.356417   1.000000
  146       -2.338859   1.000000
  147       -2.337598   1.000000
  148       -2.298746   1.000000
  149       -2.295376   1.000000
  150       -2.278603   1.000000
  151       -2.249291   1.000000
  152       -2.214922   1.000000
  153       -2.210567   1.000000
  154       -2.199287   1.000000
  155       -2.195097   1.000000
  156       -2.192503   1.000000
  157       -2.189204   1.000000
  158       -2.186149   1.000000
  159       -2.166949   1.000000
  160       -2.165638   1.000000
  161       -2.163801   1.000000
  162       -2.162473   1.000000
  163       -2.154036   1.000000
  164       -2.152352   1.000000
  165       -2.149502   1.000000
  166       -2.147793   1.000000
  167       -2.074614   1.000000
  168       -2.070261   1.000000
  169       -2.058244   1.000000
  170       -2.041770   1.000000
  171       -2.040673   1.000000
  172       -2.035136   1.000000
  173       -2.025903   1.000000
  174       -2.013274   1.000000
  175       -2.013038   1.000000
  176       -1.997638   1.000000
  177       -1.996995   1.000000
  178       -1.974870   1.000000
  179       -1.972866   1.000000
  180       -1.969268   1.000000
  181       -1.965922   1.000000
  182       -1.957093   1.000000
  183       -1.955290   1.000000
  184       -1.945227   1.000000
  185       -1.935525   1.000000
  186       -1.889828   1.000000
  187       -1.710713   1.000000
  188       -1.617548   1.000000
  189       -1.585651   1.000000
  190       -1.339355   1.000000
  191       -1.337967   1.000000
  192       -1.004846   0.999002
  193       -1.003328   0.998973
  194       -0.858247   0.995115
  195       -0.674694   1.048401
  196       -0.673673   1.048686
  197       -0.529134   0.825580
  198       -0.522149   0.796601
  199        0.040563   0.001994
  200        0.248419   0.000015
  201        0.253129   0.000013
  202        0.437023   0.000000
  203        0.438509   0.000000
  204        0.529834   0.000000
  205        0.533812   0.000000
  206        0.710999   0.000000
  207        0.720212   0.000000
  208        0.940563   0.000000
  209        0.943166   0.000000
  210        1.362313   0.000000
  211        1.513054   0.000000
  212        1.521809   0.000000
  213        1.579515   0.000000
  214        1.796867   0.000000
  215        2.325263   0.000000
  216        2.646582   0.000000
  217        2.655136   0.000000
  218        2.764460   0.000000
  219        2.773968   0.000000
  220        3.108283   0.000000
  221        3.110392   0.000000
  222        3.419803   0.000000
  223        3.471260   0.000000
  224        3.550998   0.000000
  225        3.554645   0.000000
  226        3.850140   0.000000
  227        4.150690   0.000000
  228        4.159102   0.000000
  229        4.351655   0.000000
  230        4.486460   0.000000
  231        4.488633   0.000000
  232        4.800640   0.000000
  233        5.053052   0.000000
  234        5.055585   0.000000
  235        5.123310   0.000000
  236        5.412014   0.000000
  237        5.414441   0.000000
  238        5.494154   0.000000
  239        5.508288   0.000000
  240        6.084149   0.000000
 
 -0.1250000E+00  0.3750000E+00  0.0000000E+00  0.1250000E+00
    1       -8.549875   1.000000
    2       -7.921754   1.000000
    3       -7.026920   1.000000
    4       -6.762820   1.000000
    5       -6.474004   1.000000
    6       -6.241942   1.000000
    7       -5.823634   1.000000
    8       -5.556367   1.000000
    9       -5.432263   1.000000
   10       -5.289230   1.000000
   11       -5.194378   1.000000
   12       -5.123554   1.000000
   13       -5.095047   1.000000
   14       -5.086616   1.000000
   15       -4.844486   1.000000
   16       -4.815826   1.000000
   17       -4.809748   1.000000
   18       -4.755170   1.000000
   19       -4.746262   1.000000
   20       -4.705299   1.000000
   21       -4.596289   1.000000
   22       -4.544812   1.000000
   23       -4.535173   1.000000
   24       -4.499343   1.000000
   25       -4.468394   1.000000
   26       -4.431563   1.000000
   27       -4.420932   1.000000
   28       -4.412563   1.000000
   29       -4.398744   1.000000
   30       -4.369348   1.000000
   31       -4.351015   1.000000
   32       -4.345499   1.000000
   33       -4.255122   1.000000
   34       -4.249405   1.000000
   35       -4.172410   1.000000
   36       -4.161426   1.000000
   37       -4.137448   1.000000
   38       -4.129716   1.000000
   39       -4.067544   1.000000
   40       -4.064964   1.000000
   41       -4.046278   1.000000
   42       -4.020352   1.000000
   43       -4.010364   1.000000
   44       -3.945444   1.000000
   45       -3.940284   1.000000
   46       -3.929955   1.000000
   47       -3.877047   1.000000
   48       -3.837907   1.000000
   49       -3.835328   1.000000
   50       -3.816654   1.000000
   51       -3.807712   1.000000
   52       -3.751102   1.000000
   53       -3.706159   1.000000
   54       -3.695456   1.000000
   55       -3.682405   1.000000
   56       -3.658263   1.000000
   57       -3.651318   1.000000
   58       -3.638050   1.000000
   59       -3.591018   1.000000
   60       -3.586850   1.000000
   61       -3.568611   1.000000
   62       -3.564221   1.000000
   63       -3.551365   1.000000
   64       -3.543806   1.000000
   65       -3.533232   1.000000
   66       -3.525575   1.000000
   67       -3.509624   1.000000
   68       -3.435828   1.000000
   69       -3.396514   1.000000
   70       -3.365944   1.000000
   71       -3.357909   1.000000
   72       -3.351926   1.000000
   73       -3.332792   1.000000
   74       -3.321026   1.000000
   75       -3.272500   1.000000
   76       -3.251633   1.000000
   77       -3.226512   1.000000
   78       -3.223904   1.000000
   79       -3.212855   1.000000
   80       -3.208730   1.000000
   81       -3.201775   1.000000
   82       -3.197852   1.000000
   83       -3.188945   1.000000
   84       -3.187124   1.000000
   85       -3.169235   1.000000
   86       -3.157255   1.000000
   87       -3.143397   1.000000
   88       -3.138938   1.000000
   89       -3.117078   1.000000
   90       -3.110663   1.000000
   91       -3.105461   1.000000
   92       -3.083092   1.000000
   93       -3.076449   1.000000
   94       -3.042589   1.000000
   95       -3.035552   1.000000
   96       -3.008506   1.000000
   97       -2.982973   1.000000
   98       -2.979796   1.000000
   99       -2.920462   1.000000
  100       -2.906611   1.000000
  101       -2.872665   1.000000
  102       -2.869405   1.000000
  103       -2.858944   1.000000
  104       -2.853253   1.000000
  105       -2.846376   1.000000
  106       -2.842072   1.000000
  107       -2.824450   1.000000
  108       -2.818868   1.000000
  109       -2.808691   1.000000
  110       -2.790140   1.000000
  111       -2.780575   1.000000
  112       -2.767156   1.000000
  113       -2.735270   1.000000
  114       -2.720227   1.000000
  115       -2.716671   1.000000
  116       -2.709576   1.000000
  117       -2.706834   1.000000
  118       -2.698874   1.000000
  119       -2.674487   1.000000
  120       -2.668124   1.000000
  121       -2.654055   1.000000
  122       -2.635969   1.000000
  123       -2.626795   1.000000
  124       -2.620142   1.000000
  125       -2.614443   1.000000
  126       -2.552915   1.000000
  127       -2.523654   1.000000
  128       -2.507353   1.000000
  129       -2.499335   1.000000
  130       -2.496860   1.000000
  131       -2.481185   1.000000
  132       -2.469558   1.000000
  133       -2.452961   1.000000
  134       -2.443281   1.000000
  135       -2.433743   1.000000
  136       -2.429964   1.000000
  137       -2.425685   1.000000
  138       -2.419965   1.000000
  139       -2.399331   1.000000
  140       -2.393319   1.000000
  141       -2.390610   1.000000
  142       -2.386781   1.000000
  143       -2.372618   1.000000
  144       -2.371377   1.000000
  145       -2.350088   1.000000
  146       -2.347240   1.000000
  147       -2.327898   1.000000
  148       -2.320181   1.000000
  149       -2.292747   1.000000
  150       -2.286393   1.000000
  151       -2.280412   1.000000
  152       -2.247579   1.000000
  153       -2.230803   1.000000
  154       -2.224411   1.000000
  155       -2.215386   1.000000
  156       -2.213055   1.000000
  157       -2.177155   1.000000
  158       -2.172206   1.000000
  159       -2.150423   1.000000
  160       -2.149559   1.000000
  161       -2.147201   1.000000
  162       -2.138417   1.000000
  163       -2.133369   1.000000
  164       -2.129147   1.000000
  165       -2.124343   1.000000
  166       -2.110410   1.000000
  167       -2.092786   1.000000
  168       -2.089565   1.000000
  169       -2.087416   1.000000
  170       -2.086192   1.000000
  171       -2.076205   1.000000
  172       -2.063981   1.000000
  173       -2.061670   1.000000
  174       -2.057377   1.000000
  175       -2.042841   1.000000
  176       -2.022991   1.000000
  177       -2.004117   1.000000
  178       -1.994004   1.000000
  179       -1.983171   1.000000
  180       -1.979720   1.000000
  181       -1.969424   1.000000
  182       -1.938318   1.000000
  183       -1.928538   1.000000
  184       -1.925626   1.000000
  185       -1.910264   1.000000
  186       -1.886272   1.000000
  187       -1.835686   1.000000
  188       -1.799000   1.000000
  189       -1.771203   1.000000
  190       -1.712661   1.000000
  191       -1.672525   1.000000
  192       -1.606440   1.000000
  193       -1.536833   1.000000
  194       -1.184385   0.999989
  195       -1.094200   0.999863
  196       -0.959933   0.997857
  197       -0.787944   1.003048
  198       -0.361786   0.060502
  199       -0.182525  -0.019185
  200       -0.168955  -0.013529
  201       -0.093980   0.003633
  202        0.007273   0.003149
  203        0.149365   0.000228
  204        0.351678   0.000000
  205        0.582991   0.000000
  206        0.781362   0.000000
  207        1.158150   0.000000
  208        1.304514   0.000000
  209        1.570158   0.000000
  210        1.588256   0.000000
  211        2.071049   0.000000
  212        2.167129   0.000000
  213        2.230622   0.000000
  214        2.254771   0.000000
  215        2.269465   0.000000
  216        2.601460   0.000000
  217        2.715611   0.000000
  218        2.800249   0.000000
  219        3.249326   0.000000
  220        3.258189   0.000000
  221        3.529780   0.000000
  222        3.660207   0.000000
  223        3.691822   0.000000
  224        3.747294   0.000000
  225        3.902021   0.000000
  226        3.981447   0.000000
  227        4.168215   0.000000
  228        4.460160   0.000000
  229        4.493449   0.000000
  230        4.524762   0.000000
  231        4.547481   0.000000
  232        4.848555   0.000000
  233        4.999395   0.000000
  234        5.068084   0.000000
  235        5.104592   0.000000
  236        5.181065   0.000000
  237        5.341066   0.000000
  238        5.457376   0.000000
  239        5.472076   0.000000
  240        5.844507   0.000000
