 vasp.5.4.4.18Apr17-6-g9f103f2a35 (build Mar 06 2021 22:04:06) complex          
  
 executed on             LinuxIFC date 2024.03.06  14:29:20
 running on   16 total cores
 distrk:  each k-point on   16 cores,    1 groups
 distr:  one band on NCORES_PER_BAND=   1 cores,   16 groups


--------------------------------------------------------------------------------------------------------


 INCAR:
 POTCAR:    PAW_PBE Cu 22Jun2005                  

 ----------------------------------------------------------------------------- 
|                                                                             |
|           W    W    AA    RRRRR   N    N  II  N    N   GGGG   !!!           |
|           W    W   A  A   R    R  NN   N  II  NN   N  G    G  !!!           |
|           W    W  A    A  R    R  N N  N  II  N N  N  G       !!!           |
|           W WW W  AAAAAA  RRRRR   N  N N  II  N  N N  G  GGG   !            |
|           WW  WW  A    A  R   R   N   NN  II  N   NN  G    G                |
|           W    W  A    A  R    R  N    N  II  N    N   GGGG   !!!           |
|                                                                             |
|      For optimal performance we recommend to set                            |
|        NCORE= 4 - approx SQRT( number of cores)                             |
|      NCORE specifies how many cores store one orbital (NPAR=cpu/NCORE).     |
|      This setting can  greatly improve the performance of VASP for DFT.     |
|      The default,   NCORE=1            might be grossly inefficient         |
|      on modern multi-core architectures or massively parallel machines.     |
|      Do your own testing !!!!                                               |
|      Unfortunately you need to use the default for GW and RPA calculations. |
|      (for HF NCORE is supported but not extensively tested yet)             |
|                                                                             |
 ----------------------------------------------------------------------------- 

 POTCAR:    PAW_PBE Cu 22Jun2005                  
   VRHFIN =Cu: d10 p1                                                           
   LEXCH  = PE                                                                  
   EATOM  =  1390.9808 eV,  102.2342 Ry                                         
                                                                                
   TITEL  = PAW_PBE Cu 22Jun2005                                                
   LULTRA =        F    use ultrasoft PP ?                                      
   IUNSCR =        1    unscreen: 0-lin 1-nonlin 2-no                           
   RPACOR =    2.000    partial core radius                                     
   POMASS =   63.546; ZVAL   =   11.000    mass and valenz                      
   RCORE  =    2.300    outmost cutoff radius                                   
   RWIGS  =    2.200; RWIGS  =    1.164    wigner-seitz radius (au A)           
   ENMAX  =  295.446; ENMIN  =  221.585 eV                                      
   ICORE  =        3    local potential                                         
   LCOR   =        T    correct aug charges                                     
   LPAW   =        T    paw PP                                                  
   EAUG   =  586.980                                                            
   DEXC   =    0.000                                                            
   RMAX   =    2.344    core radius for proj-oper                               
   RAUG   =    1.300    factor for augmentation sphere                          
   RDEP   =    2.302    radius for radial grids                                 
   RDEPT  =    1.771    core radius for aug-charge                              
                                                                                
   Atomic configuration                                                         
    9 entries                                                                   
     n  l   j            E        occ.                                          
     1  0  0.50     -8850.2468   2.0000                                         
     2  0  0.50     -1062.3498   2.0000                                         
     2  1  1.50      -916.8226   6.0000                                         
     3  0  0.50      -114.6929   2.0000                                         
     3  1  1.50       -72.1325   6.0000                                         
     3  2  2.50        -5.0394  10.0000                                         
     4  0  0.50        -4.6097   1.0000                                         
     4  1  0.50        -4.0817   0.0000                                         
     4  3  2.50        -1.3606   0.0000                                         
   Description                                                                  
     l       E           TYP  RCUT    TYP  RCUT                                 
     2     -5.0393973     23  2.200                                             
     2     10.8846608     23  2.200                                             
     0     -4.6097109     23  2.200                                             
     0      8.2520465     23  2.200                                             
     1     -2.7211652     23  2.200                                             
     1     21.7055443     23  2.200                                             
     3      2.7211652     23  2.300                                             
  local pseudopotential read in
  partial core-charges read in
  partial kinetic energy density read in
  atomic valenz-charges read in
  non local Contribution for L=           2  read in
    real space projection operators read in
  non local Contribution for L=           2  read in
    real space projection operators read in
  non local Contribution for L=           0  read in
    real space projection operators read in
  non local Contribution for L=           0  read in
    real space projection operators read in
  non local Contribution for L=           1  read in
    real space projection operators read in
  non local Contribution for L=           1  read in
    real space projection operators read in
    PAW grid and wavefunctions read in
 
   number of l-projection  operators is LMAX  =           6
   number of lm-projection operators is LMMAX =          18
 
 Optimization of the real space projectors (new method)

 maximal supplied QI-value         = 16.25
 optimisation between [QCUT,QGAM] = [ 11.86, 23.89] = [ 39.41,159.82] Ry 
 Optimized for a Real-space Cutoff    1.37 Angstroem

   l    n(q)    QCUT    max X(q) W(low)/X(q) W(high)/X(q)  e(spline) 
   2      9    11.864     4.610    0.26E-03    0.41E-03    0.20E-06
   2      9    11.864     8.522    0.43E-03    0.67E-03    0.35E-06
   0     10    11.864    51.609    0.83E-04    0.11E-03    0.13E-06
   0     10    11.864    27.747    0.78E-04    0.11E-03    0.12E-06
   1      9    11.864    20.408    0.13E-03    0.42E-04    0.22E-06
   1      9    11.864    13.425    0.12E-03    0.35E-04    0.19E-06

 ----------------------------------------------------------------------------- 
|                                                                             |
|  ADVICE TO THIS USER RUNNING 'VASP/VAMP'   (HEAR YOUR MASTER'S VOICE ...):  |
|                                                                             |
|      You enforced a specific xc-type in the INCAR file,                     |
|      a different type was found on the POTCAR file                          |
|          I HOPE YOU KNOW, WHAT YOU ARE  DOING                               |
|                                                                             |
 ----------------------------------------------------------------------------- 

  PAW_PBE Cu 22Jun2005                  :
 energy of atom  1       EATOM=-1390.9808
 kinetic energy error for atom=    0.0036 (will be added to EATOM!!)
 
 
 POSCAR: Cu                                      
  positions in direct lattice
  velocities in cartesian coordinates
 exchange correlation table for  LEXCH =        9
   RHO(1)=    0.500       N(1)  =     2000
   RHO(2)=  100.500       N(2)  =     4000

 VTST: version 3.2, (02/03/18)

 CHAIN: initializing optimizer
 
 OPT: Using VASP Dynamics algorithm
 CHAIN: Read ICHAIN            0
 
 POSCAR: Cu                                      
  positions in direct lattice
  velocities in cartesian coordinates
 


--------------------------------------------------------------------------------------------------------


 ion  position               nearest neighbor table
   1  0.167  0.167  0.000-   3 2.57   7 2.57   4 2.57   2 2.57  10 2.57  11 2.57  13 2.57  14 2.57

   2  0.500  0.167  0.000-   8 2.57   5 2.57   1 2.57  11 2.57  14 2.57  12 2.57  15 2.57   3 2.57

   3  0.833  0.167  0.000-   1 2.57   9 2.57  10 2.57  13 2.57   6 2.57  12 2.57  15 2.57   2 2.57

   4  0.167  0.500  0.000-   6 2.57   5 2.57   1 2.57  13 2.57  14 2.57  16 2.57  17 2.57   7 2.57

   5  0.500  0.500  0.000-  14 2.57   4 2.57   2 2.57  15 2.57  17 2.57  18 2.57   6 2.57   8 2.57

   6  0.833  0.500  0.000-   4 2.57  13 2.57  16 2.57   3 2.57  15 2.57  18 2.57   5 2.57   9 2.57

   7  0.167  0.833  0.000-   1 2.57   9 2.57  10 2.57  11 2.57   8 2.57  16 2.57  17 2.57   4 2.57

   8  0.500  0.833  0.000-   2 2.57  11 2.57  12 2.57   7 2.57  17 2.57  18 2.57   5 2.57   9 2.57

   9  0.833  0.833  0.000-  10 2.57   7 2.57   3 2.57  12 2.57  16 2.57  18 2.57   6 2.57   8 2.57

  10  0.000  0.000  0.082-   9 2.57  12 2.57  16 2.57   7 2.57   3 2.57   1 2.57  13 2.57  11 2.57
                            25 2.62  19 2.63  27 2.65  21 2.65
  11  0.333  0.000  0.082-  17 2.57   8 2.57   7 2.57  12 2.57   2 2.57   1 2.57  14 2.57  10 2.57
                            25 2.62  19 2.62  26 2.63  20 2.63
  12  0.667  0.000  0.082-  10 2.57  18 2.57   9 2.57   8 2.57  11 2.57   3 2.57   2 2.57  15 2.57
                            20 2.63  26 2.63  27 2.65  21 2.66
  13  0.000  0.333  0.082-  15 2.57   6 2.57   3 2.57  16 2.57   4 2.57   1 2.57  10 2.57  14 2.57
                            22 2.58  24 2.62  19 2.62  21 2.63
  14  0.333  0.333  0.082-  23 2.55   5 2.57  17 2.57  15 2.57   4 2.57   2 2.57   1 2.57  13 2.57
                            11 2.57  22 2.57  19 2.61  20 2.62
  15  0.667  0.333  0.082-  23 2.56  13 2.57  18 2.57  14 2.57   6 2.57   5 2.57   3 2.57   2 2.57
                            12 2.57  24 2.60  20 2.61  21 2.63
  16  0.000  0.667  0.082-  10 2.57  18 2.57   9 2.57   6 2.57  13 2.57   7 2.57   4 2.57  17 2.57
                            22 2.58  24 2.61  25 2.62  27 2.63
  17  0.333  0.667  0.082-  23 2.55  11 2.57  18 2.57  14 2.57   8 2.57   5 2.57   7 2.57   4 2.57
                            16 2.57  22 2.57  25 2.61  26 2.61
  18  0.667  0.667  0.082-  23 2.56  16 2.57  12 2.57  17 2.57  15 2.57   9 2.57   6 2.57   8 2.57
                             5 2.57  24 2.60  26 2.62  27 2.63
  19  0.167  0.168  0.166-  22 2.56  28 2.56  20 2.56  29 2.57  21 2.57  25 2.58  31 2.60  14 2.61
                            13 2.62  11 2.62  10 2.63  32 2.63
  20  0.500  0.169  0.167-  23 2.55  19 2.56  30 2.57  29 2.57  21 2.57  26 2.60  32 2.61  15 2.61
                            14 2.62  33 2.62  12 2.63  11 2.63
  21  0.834  0.170  0.168-  24 2.54  28 2.56  30 2.56  20 2.57  19 2.57  31 2.58  33 2.61  27 2.61
                            13 2.63  15 2.63  10 2.65  12 2.66
  22  0.168  0.500  0.164-  23 2.54  19 2.56  25 2.56  14 2.57  17 2.57  13 2.58  16 2.58  24 2.59
                            31 2.62  34 2.63  35 2.66  32 2.67
  23  0.498  0.500  0.162-  22 2.54  14 2.55  17 2.55  20 2.55  26 2.55  15 2.56  18 2.56  24 2.57
                            32 2.67  35 2.67  36 2.68  33 2.68
  24  0.832  0.501  0.166-  21 2.54  27 2.55  23 2.57  22 2.59  18 2.60  15 2.60  34 2.61  16 2.61
                            31 2.61  13 2.62  33 2.63  36 2.63
  25  0.167  0.833  0.166-  26 2.56  22 2.56  29 2.57  27 2.57  28 2.57  19 2.58  34 2.59  17 2.61
                            16 2.62  11 2.62  10 2.62  35 2.63
  26  0.500  0.831  0.167-  23 2.55  29 2.56  25 2.56  27 2.57  30 2.58  20 2.60  36 2.61  17 2.61
                            18 2.62  35 2.62  11 2.63  12 2.63
  27  0.833  0.831  0.168-  24 2.55  30 2.56  28 2.56  25 2.57  34 2.57  26 2.57  36 2.60  21 2.61
                            16 2.63  18 2.63  10 2.65  12 2.65
  28  0.001  0.001  0.248-  21 2.56  29 2.56  27 2.56  19 2.56  25 2.57  30 2.58  31 2.58  34 2.58

  29  0.334  0.999  0.248-  26 2.56  30 2.56  28 2.56  25 2.57  20 2.57  19 2.57  32 2.58  35 2.58

  30  0.667  0.001  0.248-  21 2.56  27 2.56  29 2.56  20 2.57  26 2.58  28 2.58  36 2.58  33 2.58

  31  0.002  0.336  0.250-  34 2.54  32 2.56  21 2.58  28 2.58  33 2.60  19 2.60  24 2.61  22 2.62

  32  0.335  0.334  0.252-  33 2.54  35 2.54  31 2.56  29 2.58  20 2.61  19 2.63  22 2.67  23 2.67

  33  0.665  0.336  0.252-  32 2.54  36 2.54  30 2.58  31 2.60  21 2.61  20 2.62  24 2.63  23 2.68

  34  0.000  0.665  0.249-  31 2.54  35 2.57  27 2.57  28 2.58  36 2.59  25 2.59  24 2.61  22 2.63

  35  0.334  0.665  0.252-  32 2.54  36 2.55  34 2.57  29 2.58  26 2.62  25 2.63  22 2.66  23 2.67

  36  0.664  0.666  0.251-  33 2.54  35 2.55  30 2.58  34 2.59  27 2.60  26 2.61  24 2.63  23 2.68

 

IMPORTANT INFORMATION: All symmetrisations will be switched off!
NOSYMM: (Re-)initialisation of all symmetry stuff for point group C_1.

 
 
 KPOINTS: KPOINTS created by Atomic Simulation Env

Automatic generation of k-mesh.
Space group operators:
 irot       det(A)        alpha          n_x          n_y          n_z        tau_x        tau_y        tau_z
    1     1.000000     0.000001     1.000000     0.000000     0.000000     0.000000     0.000000     0.000000
 
 Subroutine IBZKPT returns following result:
 ===========================================
 
 Found      8 irreducible k-points:
 
 Following reciprocal coordinates:
            Coordinates               Weight
  0.125000  0.125000  0.000000      2.000000
  0.375000  0.125000  0.000000      2.000000
 -0.375000  0.125000  0.000000      2.000000
 -0.125000  0.125000  0.000000      2.000000
  0.125000  0.375000  0.000000      2.000000
  0.375000  0.375000  0.000000      2.000000
 -0.375000  0.375000  0.000000      2.000000
 -0.125000  0.375000  0.000000      2.000000
 
 Following cartesian coordinates:
            Coordinates               Weight
  0.016233  0.016233  0.000000      2.000000
  0.048699  0.016233  0.000000      2.000000
 -0.048699  0.016233  0.000000      2.000000
 -0.016233  0.016233  0.000000      2.000000
  0.016233  0.048699  0.000000      2.000000
  0.048699  0.048699  0.000000      2.000000
 -0.048699  0.048699  0.000000      2.000000
 -0.016233  0.048699  0.000000      2.000000
 


--------------------------------------------------------------------------------------------------------




 Dimension of arrays:
   k-points           NKPTS =      8   k-points in BZ     NKDIM =      8   number of bands    NBANDS=    240
   number of dos      NEDOS =    301   number of ions     NIONS =     36
   non local maximal  LDIM  =      6   non local SUM 2l+1 LMDIM =     18
   total plane-waves  NPLWV = 294912
   max r-space proj   IRMAX =   2468   max aug-charges    IRDMAX=   6671
   dimension x,y,z NGX =    48 NGY =   48 NGZ =  128
   dimension x,y,z NGXF=    96 NGYF=   96 NGZF=  256
   support grid    NGXF=    96 NGYF=   96 NGZF=  256
   ions per type =              36
   NGX,Y,Z   is equivalent  to a cutoff of  10.36, 10.36,  9.56 a.u.
   NGXF,Y,Z  is equivalent  to a cutoff of  20.73, 20.73, 19.12 a.u.

 SYSTEM =  unknown system                          
 POSCAR =  Cu                                      

 Startparameter for this run:
   NWRITE =      2    write-flag & timer
   PREC   = normal    normal or accurate (medium, high low for compatibility)
   ISTART =      0    job   : 0-new  1-cont  2-samecut
   ICHARG =      2    charge: 1-file 2-atom 10-const
   ISPIN  =      1    spin polarized calculation?
   LNONCOLLINEAR =      F non collinear calculations
   LSORBIT =      F    spin-orbit coupling
   INIWAV =      1    electr: 0-lowe 1-rand  2-diag
   LASPH  =      F    aspherical Exc in radial PAW
   METAGGA=      F    non-selfconsistent MetaGGA calc.

 Electronic Relaxation 1
   ENCUT  =  544.0 eV  39.98 Ry    6.32 a.u.  14.64 14.64 42.33*2*pi/ulx,y,z
   ENINI  =  544.0     initial cutoff
   ENAUG  =  587.0 eV  augmentation charge cutoff
   NELM   =    400;   NELMIN=  2; NELMDL=-12     # of ELM steps 
   EDIFF  = 0.1E-04   stopping-criterion for ELM
   LREAL  =      T    real-space projection
   NLSPLINE    = F    spline interpolate recip. space projectors
   LCOMPAT=      F    compatible to vasp.4.4
   GGA_COMPAT  = T    GGA compatible to vasp.4.4-vasp.4.6
   LMAXPAW     = -100 max onsite density
   LMAXMIX     =    2 max onsite mixed and CHGCAR
   VOSKOWN=      1    Vosko Wilk Nusair interpolation
   ROPT   =   -0.00050
 Ionic relaxation
   EDIFFG = -.5E-01   stopping-criterion for IOM
   NSW    =      0    number of steps for IOM
   NBLOCK =      1;   KBLOCK =      1    inner block; outer block 
   IBRION =     -1    ionic relax: 0-MD 1-quasi-New 2-CG
   NFREE  =      0    steps in history (QN), initial steepest desc. (CG)
   ISIF   =      2    stress and relaxation
   IWAVPR =     10    prediction:  0-non 1-charg 2-wave 3-comb
   ISYM   =      0    0-nonsym 1-usesym 2-fastsym
   LCORR  =      T    Harris-Foulkes like correction to forces

   POTIM  = 0.5000    time-step for ionic-motion
   TEIN   =    0.0    initial temperature
   TEBEG  =    0.0;   TEEND  =   0.0 temperature during run
   SMASS  =  -3.00    Nose mass-parameter (am)
   estimated Nose-frequenzy (Omega)   =  0.10E-29 period in steps =****** mass=  -0.136E-26a.u.
   SCALEE = 1.0000    scale energy and forces
   NPACO  =    256;   APACO  = 16.0  distance and # of slots for P.C.
   PSTRESS=    0.0 pullay stress

  Mass of Ions in am
   POMASS =  63.55
  Ionic Valenz
   ZVAL   =  11.00
  Atomic Wigner-Seitz radii
   RWIGS  =  -1.00
  virtual crystal weights 
   VCA    =   1.00
   NELECT =     396.0000    total number of electrons
   NUPDOWN=      -1.0000    fix difference up-down

 DOS related values:
   EMIN   =  10.00;   EMAX   =-10.00  energy-range for DOS
   EFERMI =   0.00
   ISMEAR =     2;   SIGMA  =   0.20  broadening in eV -4-tet -1-fermi 0-gaus

 Electronic relaxation 2 (details)
   IALGO  =     48    algorithm
   LDIAG  =      T    sub-space diagonalisation (order eigenvalues)
   LSUBROT=      F    optimize rotation matrix (better conditioning)
   TURBO    =      0    0=normal 1=particle mesh
   IRESTART =      0    0=no restart 2=restart with 2 vectors
   NREBOOT  =      0    no. of reboots
   NMIN     =      0    reboot dimension
   EREF     =   0.00    reference energy to select bands
   IMIX   =      4    mixing-type and parameters
     AMIX     =   0.40;   BMIX     =  1.00
     AMIX_MAG =   1.60;   BMIX_MAG =  1.00
     AMIN     =   0.10
     WC   =   100.;   INIMIX=   1;  MIXPRE=   1;  MAXMIX= -45

 Intra band minimization:
   WEIMIN = 0.0000     energy-eigenvalue tresh-hold
   EBREAK =  0.10E-07  absolut break condition
   DEPER  =   0.30     relativ break condition  

   TIME   =   0.40     timestep for ELM

  volume/ion in A,a.u.               =      36.66       247.42
  Fermi-wavevector in a.u.,A,eV,Ry     =   1.095949  2.071043 16.342009  1.201104
  Thomas-Fermi vector in A             =   2.232282
 
 Write flags
   LWAVE        =      F    write WAVECAR
   LDOWNSAMPLE  =      F    k-point downsampling of WAVECAR
   LCHARG       =      F    write CHGCAR
   LVTOT        =      F    write LOCPOT, total local potential
   LVHAR        =      T    write LOCPOT, Hartree potential only
   LELF         =      F    write electronic localiz. function (ELF)
   LORBIT       =      0    0 simple, 1 ext, 2 COOP (PROOUT), +10 PAW based schemes


 Dipole corrections
   LMONO  =      F    monopole corrections only (constant potential shift)
   LDIPOL =      T    correct potential (dipole corrections)
   IDIPOL =      3    1-x, 2-y, 3-z, 4-all directions 
   EPSILON=  1.0000000 bulk dielectric constant

   EFIELD =  0.2000000 eV/A    external electric field

 Exchange correlation treatment:
   GGA     =    RP    GGA type
   LEXCH   =     9    internal setting for exchange type
   VOSKOWN=      1    Vosko Wilk Nusair interpolation
   LHFCALC =     F    Hartree Fock is set to
   LHFONE  =     F    Hartree Fock one center treatment
   AEXX    =    0.0000 exact exchange contribution

 Linear response parameters
   LEPSILON=     F    determine dielectric tensor
   LRPA    =     F    only Hartree local field effects (RPA)
   LNABLA  =     F    use nabla operator in PAW spheres
   LVEL    =     F    velocity operator in full k-point grid
   LINTERFAST=   F  fast interpolation
   KINTER  =     0    interpolate to denser k-point grid
   CSHIFT  =0.1000    complex shift for real part using Kramers Kronig
   OMEGAMAX=  -1.0    maximum frequency
   DEG_THRESHOLD= 0.2000000E-02 threshold for treating states as degnerate
   RTIME   =   -0.100 relaxation time in fs
  (WPLASMAI=    0.000 imaginary part of plasma frequency in eV, 0.658/RTIME)
   DFIELD  = 0.0000000 0.0000000 0.0000000 field for delta impulse in time
 
 Orbital magnetization related:
   ORBITALMAG=     F  switch on orbital magnetization
   LCHIMAG   =     F  perturbation theory with respect to B field
   DQ        =  0.001000  dq finite difference perturbation B field
   LLRAUG    =     F  two centre corrections for induced B field



--------------------------------------------------------------------------------------------------------


 Static calculation
 charge density and potential will be updated during run
 non-spin polarized calculation
 RMM-DIIS sequential band-by-band
 perform sub-space diagonalisation
    before iterative eigenvector-optimisation
 modified Broyden-mixing scheme, WC =      100.0
 initial mixing is a Kerker type mixing with AMIX =  0.4000 and BMIX =      1.0000
 Hartree-type preconditioning will be used
 using additional bands           42
 real space projection scheme for non local part
 use partial core corrections
 calculate Harris-corrections to forces 
   (improved forces if not selfconsistent)
 use gradient corrections 
 use of overlap-Matrix (Vanderbilt PP)
 Methfessel and Paxton  Order N= 2 SIGMA  =   0.20


--------------------------------------------------------------------------------------------------------


  energy-cutoff  :      544.00
  volume of cell :     1319.92
      direct lattice vectors                 reciprocal lattice vectors
     7.700375000  0.000000000  0.000000000     0.129863805  0.000000000  0.000000000
     0.000000000  7.700375000  0.000000000     0.000000000  0.129863805  0.000000000
     0.000000000  0.000000000 22.259998000     0.000000000  0.000000000  0.044923634

  length of vectors
     7.700375000  7.700375000 22.259998000     0.129863805  0.129863805  0.044923634


 
 k-points in units of 2pi/SCALE and weight: KPOINTS created by Atomic Simulation Env
   0.01623298  0.01623298  0.00000000       0.125
   0.04869893  0.01623298  0.00000000       0.125
  -0.04869893  0.01623298  0.00000000       0.125
  -0.01623298  0.01623298  0.00000000       0.125
   0.01623298  0.04869893  0.00000000       0.125
   0.04869893  0.04869893  0.00000000       0.125
  -0.04869893  0.04869893  0.00000000       0.125
  -0.01623298  0.04869893  0.00000000       0.125
 
 k-points in reciprocal lattice and weights: KPOINTS created by Atomic Simulation Env
   0.12500000  0.12500000  0.00000000       0.125
   0.37500000  0.12500000  0.00000000       0.125
  -0.37500000  0.12500000  0.00000000       0.125
  -0.12500000  0.12500000  0.00000000       0.125
   0.12500000  0.37500000  0.00000000       0.125
   0.37500000  0.37500000  0.00000000       0.125
  -0.37500000  0.37500000  0.00000000       0.125
  -0.12500000  0.37500000  0.00000000       0.125
 
 position of ions in fractional coordinates (direct lattice) 
   0.16666708  0.16666708  0.00000000
   0.50000110  0.16666708  0.00000000
   0.83333526  0.16666708  0.00000000
   0.16666708  0.50000110  0.00000000
   0.50000110  0.50000110  0.00000000
   0.83333526  0.50000110  0.00000000
   0.16666708  0.83333526  0.00000000
   0.50000110  0.83333526  0.00000000
   0.83333526  0.83333526  0.00000000
   0.00000000  0.00000000  0.08153640
   0.33333416  0.00000000  0.08153640
   0.66666818  0.00000000  0.08153640
   0.00000000  0.33333416  0.08153640
   0.33333416  0.33333416  0.08153640
   0.66666818  0.33333416  0.08153640
   0.00000000  0.66666818  0.08153640
   0.33333416  0.66666818  0.08153640
   0.66666818  0.66666818  0.08153640
   0.16749132  0.16755171  0.16633056
   0.50023135  0.16854569  0.16659426
   0.83382822  0.17046235  0.16772441
   0.16775183  0.49998007  0.16359364
   0.49814808  0.49989721  0.16238928
   0.83170417  0.50060588  0.16558160
   0.16698693  0.83269425  0.16625136
   0.49959450  0.83143159  0.16657733
   0.83341318  0.83126432  0.16761520
   0.00132513  0.00111748  0.24773960
   0.33395555  0.99946665  0.24757473
   0.66657143  0.00089502  0.24789836
   0.00244988  0.33616610  0.24967743
   0.33544626  0.33422567  0.25154063
   0.66548343  0.33587572  0.25168187
   0.00045024  0.66549733  0.24947307
   0.33368154  0.66454491  0.25157729
   0.66443608  0.66598536  0.25129167
 
 position of ions in cartesian coordinates  (Angst):
   1.28339900  1.28339900  0.00000000
   3.85019600  1.28339900  0.00000000
   6.41699400  1.28339900  0.00000000
   1.28339900  3.85019600  0.00000000
   3.85019600  3.85019600  0.00000000
   6.41699400  3.85019600  0.00000000
   1.28339900  6.41699400  0.00000000
   3.85019600  6.41699400  0.00000000
   6.41699400  6.41699400  0.00000000
   0.00000000  0.00000000  1.81500000
   2.56679800  0.00000000  1.81500000
   5.13359500  0.00000000  1.81500000
   0.00000000  2.56679800  1.81500000
   2.56679800  2.56679800  1.81500000
   5.13359500  2.56679800  1.81500000
   0.00000000  5.13359500  1.81500000
   2.56679800  5.13359500  1.81500000
   5.13359500  5.13359500  1.81500000
   1.28974600  1.29021100  3.70251800
   3.85196900  1.29786500  3.70838800
   6.42079000  1.31262400  3.73354500
   1.29175200  3.85003400  3.64159400
   3.83592700  3.84939600  3.61478500
   6.40443400  3.85485300  3.68584600
   1.28586200  6.41205800  3.70075500
   3.84706500  6.40233500  3.70801100
   6.41759400  6.40104700  3.73111400
   0.01020400  0.00860500  5.51468300
   2.57158300  7.69626800  5.51101300
   5.13285000  0.00689200  5.51821700
   0.01886500  2.58860500  5.55781900
   2.58306200  2.57366300  5.59929400
   5.12447200  2.58636900  5.60243800
   0.00346700  5.12457900  5.55327000
   2.56947300  5.11724500  5.60011000
   5.11640700  5.12833700  5.59375200
 


--------------------------------------------------------------------------------------------------------


 k-point  1 :   0.1250 0.1250 0.0000  plane waves:   38041
 k-point  2 :   0.3750 0.1250 0.0000  plane waves:   38040
 k-point  3 :  -0.3750 0.1250 0.0000  plane waves:   38040
 k-point  4 :  -0.1250 0.1250 0.0000  plane waves:   38041
 k-point  5 :   0.1250 0.3750 0.0000  plane waves:   38040
 k-point  6 :   0.3750 0.3750 0.0000  plane waves:   37996
 k-point  7 :  -0.3750 0.3750 0.0000  plane waves:   37996
 k-point  8 :  -0.1250 0.3750 0.0000  plane waves:   38040

 maximum and minimum number of plane-waves per node :     38041    37996

 maximum number of plane-waves:     38041
 maximum index in each direction: 
   IXMAX=   15   IYMAX=   14   IZMAX=   42
   IXMIN=  -15   IYMIN=  -15   IZMIN=  -42


 serial   3D FFT for wavefunctions
 parallel 3D FFT for charge:
    minimum data exchange during FFTs selected (reduces bandwidth)


 total amount of memory used by VASP MPI-rank0   144874. kBytes
=======================================================================

   base      :      30000. kBytes
   nonlr-proj:      14881. kBytes
   fftplans  :       6175. kBytes
   grid      :      18948. kBytes
   one-center:        559. kBytes
   wavefun   :      74311. kBytes
 
     INWAV:  cpu time    0.0001: real time    0.0003
 Broyden mixing: mesh for mixing (old mesh)
   NGX = 29   NGY = 29   NGZ = 85
  (NGX  = 96   NGY  = 96   NGZ  =256)
  gives a total of  71485 points

 initial charge density was supplied:
 charge density of overlapping atoms calculated
 number of electron     396.0000000 magnetization 
 keeping initial charge density in first step


--------------------------------------------------------------------------------------------------------


 Maximum index for non-local projection operator         2371
 Maximum index for augmentation-charges          404 (set IRDMAX)


--------------------------------------------------------------------------------------------------------


 First call to EWALD:  gamma=   0.162
 Maximum number of real-space cells 4x 4x 2
 Maximum number of reciprocal cells 2x 2x 5

    FEWALD:  cpu time    0.0016: real time    0.0016


--------------------------------------- Iteration      1(   1)  ---------------------------------------


    POTLOK:  cpu time    0.1189: real time    0.1230
    SETDIJ:  cpu time    0.0059: real time    0.0060
    EDDIAG:  cpu time    3.4669: real time    3.5402
  RMM-DIIS:  cpu time    6.1397: real time    6.2490
    ORTHCH:  cpu time    0.7314: real time    0.7374
       DOS:  cpu time    0.0059: real time    0.0060
    --------------------------------------------
      LOOP:  cpu time   10.4687: real time   10.6617

 eigenvalue-minimisations  :  1920
 total energy-change (2. order) : 0.3167913E+04  (-0.1583829E+05)
 number of electron     396.0000000 magnetization 
 augmentation part      396.0000000 magnetization 

 DIPCOR: dipole corrections for dipol
 direction  3 min pos   164,
 dipolmoment           0.000000      0.000000      0.000069 electrons x Angstroem
 Tr[quadrupol]     -4128.493775

 energy correction for charged system         0.000000 eV
 dipol+quadrupol energy correction           -0.000000 eV
 added-field ion interaction        -21.886265 eV  (added to PSCEN)


 Free energy of the ion-electron system (eV)
  ---------------------------------------------------
  alpha Z        PSCENC =       696.18633098
  Ewald energy   TEWEN  =    164226.44806453
  -Hartree energ DENC   =   -212025.95640762
  -exchange      EXHF   =         0.00000000
  -V(xc)+E(xc)   XCENC  =      1613.73814842
  PAW double counting   =     44243.50493509   -48017.47383163
  entropy T*S    EENTRO =        -0.00891492
  eigenvalues    EBANDS =      2393.55034225
  atomic energy  EATOM  =     50037.92390023
  Solvation  Ediel_sol  =         0.00000000
  ---------------------------------------------------
  free energy    TOTEN  =      3167.91256733 eV

  energy without entropy =     3167.92148226  energy(sigma->0) =     3167.91479606


--------------------------------------------------------------------------------------------------------




--------------------------------------- Iteration      1(   2)  ---------------------------------------


    EDDIAG:  cpu time    3.4264: real time    3.4660
  RMM-DIIS:  cpu time    6.0701: real time    6.1390
    ORTHCH:  cpu time    0.7143: real time    0.7209
       DOS:  cpu time    0.0011: real time    0.0011
    --------------------------------------------
      LOOP:  cpu time   10.2118: real time   10.3270

 eigenvalue-minimisations  :  1920
 total energy-change (2. order) :-0.2453872E+04  (-0.2771770E+04)
 number of electron     396.0000000 magnetization 
 augmentation part      396.0000000 magnetization 

 DIPCOR: dipole corrections for dipol
 direction  3 min pos   164,
 dipolmoment           0.000000      0.000000      0.000069 electrons x Angstroem
 Tr[quadrupol]     -4128.493775

 energy correction for charged system         0.000000 eV
 dipol+quadrupol energy correction           -0.000000 eV
 added-field ion interaction        -21.886265 eV  (added to PSCEN)


 Free energy of the ion-electron system (eV)
  ---------------------------------------------------
  alpha Z        PSCENC =       696.18633098
  Ewald energy   TEWEN  =    164226.44806453
  -Hartree energ DENC   =   -212025.95640762
  -exchange      EXHF   =         0.00000000
  -V(xc)+E(xc)   XCENC  =      1613.73814842
  PAW double counting   =     44243.50493509   -48017.47383163
  entropy T*S    EENTRO =        -0.00848169
  eigenvalues    EBANDS =       -60.32169384
  atomic energy  EATOM  =     50037.92390023
  Solvation  Ediel_sol  =         0.00000000
  ---------------------------------------------------
  free energy    TOTEN  =       714.04096448 eV

  energy without entropy =      714.04944617  energy(sigma->0) =      714.04308490


--------------------------------------------------------------------------------------------------------




--------------------------------------- Iteration      1(   3)  ---------------------------------------


    EDDIAG:  cpu time    3.4108: real time    3.4532
  RMM-DIIS:  cpu time    5.9553: real time    6.0175
    ORTHCH:  cpu time    0.6462: real time    0.6508
       DOS:  cpu time    0.0010: real time    0.0010
    --------------------------------------------
      LOOP:  cpu time   10.0133: real time   10.1226

 eigenvalue-minimisations  :  1920
 total energy-change (2. order) :-0.5464112E+03  (-0.5606867E+03)
 number of electron     396.0000000 magnetization 
 augmentation part      396.0000000 magnetization 

 DIPCOR: dipole corrections for dipol
 direction  3 min pos   164,
 dipolmoment           0.000000      0.000000      0.000069 electrons x Angstroem
 Tr[quadrupol]     -4128.493775

 energy correction for charged system         0.000000 eV
 dipol+quadrupol energy correction           -0.000000 eV
 added-field ion interaction        -21.886265 eV  (added to PSCEN)


 Free energy of the ion-electron system (eV)
  ---------------------------------------------------
  alpha Z        PSCENC =       696.18633098
  Ewald energy   TEWEN  =    164226.44806453
  -Hartree energ DENC   =   -212025.95640762
  -exchange      EXHF   =         0.00000000
  -V(xc)+E(xc)   XCENC  =      1613.73814842
  PAW double counting   =     44243.50493509   -48017.47383163
  entropy T*S    EENTRO =         0.02968235
  eigenvalues    EBANDS =      -606.77109364
  atomic energy  EATOM  =     50037.92390023
  Solvation  Ediel_sol  =         0.00000000
  ---------------------------------------------------
  free energy    TOTEN  =       167.62972871 eV

  energy without entropy =      167.60004636  energy(sigma->0) =      167.62230812


--------------------------------------------------------------------------------------------------------




--------------------------------------- Iteration      1(   4)  ---------------------------------------


    EDDIAG:  cpu time    3.4172: real time    3.4511
  RMM-DIIS:  cpu time    6.1318: real time    6.1879
    ORTHCH:  cpu time    0.7308: real time    0.7362
       DOS:  cpu time    0.0009: real time    0.0009
    --------------------------------------------
      LOOP:  cpu time   10.2807: real time   10.3761

 eigenvalue-minimisations  :  1920
 total energy-change (2. order) :-0.2081910E+03  (-0.9201957E+02)
 number of electron     396.0000000 magnetization 
 augmentation part      396.0000000 magnetization 

 DIPCOR: dipole corrections for dipol
 direction  3 min pos   164,
 dipolmoment           0.000000      0.000000      0.000069 electrons x Angstroem
 Tr[quadrupol]     -4128.493775

 energy correction for charged system         0.000000 eV
 dipol+quadrupol energy correction           -0.000000 eV
 added-field ion interaction        -21.886265 eV  (added to PSCEN)


 Free energy of the ion-electron system (eV)
  ---------------------------------------------------
  alpha Z        PSCENC =       696.18633098
  Ewald energy   TEWEN  =    164226.44806453
  -Hartree energ DENC   =   -212025.95640762
  -exchange      EXHF   =         0.00000000
  -V(xc)+E(xc)   XCENC  =      1613.73814842
  PAW double counting   =     44243.50493509   -48017.47383163
  entropy T*S    EENTRO =        -0.00254903
  eigenvalues    EBANDS =      -814.92982140
  atomic energy  EATOM  =     50037.92390023
  Solvation  Ediel_sol  =         0.00000000
  ---------------------------------------------------
  free energy    TOTEN  =       -40.56123042 eV

  energy without entropy =      -40.55868139  energy(sigma->0) =      -40.56059316


--------------------------------------------------------------------------------------------------------




--------------------------------------- Iteration      1(   5)  ---------------------------------------


    EDDIAG:  cpu time    3.3316: real time    3.3618
  RMM-DIIS:  cpu time    5.5006: real time    5.5531
    ORTHCH:  cpu time    0.7388: real time    0.7447
       DOS:  cpu time    0.0012: real time    0.0012
    --------------------------------------------
      LOOP:  cpu time    9.5722: real time    9.6607

 eigenvalue-minimisations  :  1920
 total energy-change (2. order) :-0.5062315E+02  (-0.3360431E+02)
 number of electron     396.0000000 magnetization 
 augmentation part      396.0000000 magnetization 

 DIPCOR: dipole corrections for dipol
 direction  3 min pos   164,
 dipolmoment           0.000000      0.000000      0.000069 electrons x Angstroem
 Tr[quadrupol]     -4128.493775

 energy correction for charged system         0.000000 eV
 dipol+quadrupol energy correction           -0.000000 eV
 added-field ion interaction        -21.886265 eV  (added to PSCEN)


 Free energy of the ion-electron system (eV)
  ---------------------------------------------------
  alpha Z        PSCENC =       696.18633098
  Ewald energy   TEWEN  =    164226.44806453
  -Hartree energ DENC   =   -212025.95640762
  -exchange      EXHF   =         0.00000000
  -V(xc)+E(xc)   XCENC  =      1613.73814842
  PAW double counting   =     44243.50493509   -48017.47383163
  entropy T*S    EENTRO =        -0.01007026
  eigenvalues    EBANDS =      -865.54545512
  atomic energy  EATOM  =     50037.92390023
  Solvation  Ediel_sol  =         0.00000000
  ---------------------------------------------------
  free energy    TOTEN  =       -91.18438537 eV

  energy without entropy =      -91.17431511  energy(sigma->0) =      -91.18186780


--------------------------------------------------------------------------------------------------------




--------------------------------------- Iteration      1(   6)  ---------------------------------------


    EDDIAG:  cpu time    3.2763: real time    3.3065
  RMM-DIIS:  cpu time    6.0973: real time    6.1496
    ORTHCH:  cpu time    0.6544: real time    0.6588
       DOS:  cpu time    0.0009: real time    0.0009
    --------------------------------------------
      LOOP:  cpu time   10.0290: real time   10.1159

 eigenvalue-minimisations  :  1920
 total energy-change (2. order) :-0.2252882E+02  (-0.1665160E+02)
 number of electron     396.0000000 magnetization 
 augmentation part      396.0000000 magnetization 

 DIPCOR: dipole corrections for dipol
 direction  3 min pos   164,
 dipolmoment           0.000000      0.000000      0.000069 electrons x Angstroem
 Tr[quadrupol]     -4128.493775

 energy correction for charged system         0.000000 eV
 dipol+quadrupol energy correction           -0.000000 eV
 added-field ion interaction        -21.886265 eV  (added to PSCEN)


 Free energy of the ion-electron system (eV)
  ---------------------------------------------------
  alpha Z        PSCENC =       696.18633098
  Ewald energy   TEWEN  =    164226.44806453
  -Hartree energ DENC   =   -212025.95640762
  -exchange      EXHF   =         0.00000000
  -V(xc)+E(xc)   XCENC  =      1613.73814842
  PAW double counting   =     44243.50493509   -48017.47383163
  entropy T*S    EENTRO =         0.01449893
  eigenvalues    EBANDS =      -888.09884309
  atomic energy  EATOM  =     50037.92390023
  Solvation  Ediel_sol  =         0.00000000
  ---------------------------------------------------
  free energy    TOTEN  =      -113.71320416 eV

  energy without entropy =     -113.72770308  energy(sigma->0) =     -113.71682889


--------------------------------------------------------------------------------------------------------




--------------------------------------- Iteration      1(   7)  ---------------------------------------


    EDDIAG:  cpu time    3.2322: real time    3.2606
  RMM-DIIS:  cpu time    5.5546: real time    5.6007
    ORTHCH:  cpu time    0.7572: real time    0.7627
       DOS:  cpu time    0.0010: real time    0.0010
    --------------------------------------------
      LOOP:  cpu time    9.5450: real time    9.6251

 eigenvalue-minimisations  :  1920
 total energy-change (2. order) :-0.1086348E+02  (-0.8856590E+01)
 number of electron     396.0000000 magnetization 
 augmentation part      396.0000000 magnetization 

 DIPCOR: dipole corrections for dipol
 direction  3 min pos   164,
 dipolmoment           0.000000      0.000000      0.000069 electrons x Angstroem
 Tr[quadrupol]     -4128.493775

 energy correction for charged system         0.000000 eV
 dipol+quadrupol energy correction           -0.000000 eV
 added-field ion interaction        -21.886265 eV  (added to PSCEN)


 Free energy of the ion-electron system (eV)
  ---------------------------------------------------
  alpha Z        PSCENC =       696.18633098
  Ewald energy   TEWEN  =    164226.44806453
  -Hartree energ DENC   =   -212025.95640762
  -exchange      EXHF   =         0.00000000
  -V(xc)+E(xc)   XCENC  =      1613.73814842
  PAW double counting   =     44243.50493509   -48017.47383163
  entropy T*S    EENTRO =        -0.00698954
  eigenvalues    EBANDS =      -898.94083154
  atomic energy  EATOM  =     50037.92390023
  Solvation  Ediel_sol  =         0.00000000
  ---------------------------------------------------
  free energy    TOTEN  =      -124.57668107 eV

  energy without entropy =     -124.56969153  energy(sigma->0) =     -124.57493369


--------------------------------------------------------------------------------------------------------




--------------------------------------- Iteration      1(   8)  ---------------------------------------


    EDDIAG:  cpu time    3.2475: real time    3.2767
  RMM-DIIS:  cpu time    5.4385: real time    5.4834
    ORTHCH:  cpu time    0.7254: real time    0.7325
       DOS:  cpu time    0.0011: real time    0.0011
    --------------------------------------------
      LOOP:  cpu time    9.4125: real time    9.4937

 eigenvalue-minimisations  :  1920
 total energy-change (2. order) :-0.5069376E+01  (-0.4447601E+01)
 number of electron     396.0000000 magnetization 
 augmentation part      396.0000000 magnetization 

 DIPCOR: dipole corrections for dipol
 direction  3 min pos   164,
 dipolmoment           0.000000      0.000000      0.000069 electrons x Angstroem
 Tr[quadrupol]     -4128.493775

 energy correction for charged system         0.000000 eV
 dipol+quadrupol energy correction           -0.000000 eV
 added-field ion interaction        -21.886265 eV  (added to PSCEN)


 Free energy of the ion-electron system (eV)
  ---------------------------------------------------
  alpha Z        PSCENC =       696.18633098
  Ewald energy   TEWEN  =    164226.44806453
  -Hartree energ DENC   =   -212025.95640762
  -exchange      EXHF   =         0.00000000
  -V(xc)+E(xc)   XCENC  =      1613.73814842
  PAW double counting   =     44243.50493509   -48017.47383163
  entropy T*S    EENTRO =        -0.03253690
  eigenvalues    EBANDS =      -903.98465990
  atomic energy  EATOM  =     50037.92390023
  Solvation  Ediel_sol  =         0.00000000
  ---------------------------------------------------
  free energy    TOTEN  =      -129.64605680 eV

  energy without entropy =     -129.61351990  energy(sigma->0) =     -129.63792257


--------------------------------------------------------------------------------------------------------




--------------------------------------- Iteration      1(   9)  ---------------------------------------


    EDDIAG:  cpu time    3.2043: real time    3.2348
  RMM-DIIS:  cpu time   15.7792: real time   15.9142
    ORTHCH:  cpu time    0.7343: real time    0.7397
       DOS:  cpu time    0.0010: real time    0.0010
    --------------------------------------------
      LOOP:  cpu time   19.7188: real time   19.8898

 eigenvalue-minimisations  :  5345
 total energy-change (2. order) :-0.4041452E+01  (-0.3923032E+01)
 number of electron     396.0000000 magnetization 
 augmentation part      396.0000000 magnetization 

 DIPCOR: dipole corrections for dipol
 direction  3 min pos   164,
 dipolmoment           0.000000      0.000000      0.000069 electrons x Angstroem
 Tr[quadrupol]     -4128.493775

 energy correction for charged system         0.000000 eV
 dipol+quadrupol energy correction           -0.000000 eV
 added-field ion interaction        -21.886265 eV  (added to PSCEN)


 Free energy of the ion-electron system (eV)
  ---------------------------------------------------
  alpha Z        PSCENC =       696.18633098
  Ewald energy   TEWEN  =    164226.44806453
  -Hartree energ DENC   =   -212025.95640762
  -exchange      EXHF   =         0.00000000
  -V(xc)+E(xc)   XCENC  =      1613.73814842
  PAW double counting   =     44243.50493509   -48017.47383163
  entropy T*S    EENTRO =        -0.03660422
  eigenvalues    EBANDS =      -908.02204413
  atomic energy  EATOM  =     50037.92390023
  Solvation  Ediel_sol  =         0.00000000
  ---------------------------------------------------
  free energy    TOTEN  =      -133.68750835 eV

  energy without entropy =     -133.65090413  energy(sigma->0) =     -133.67835729


--------------------------------------------------------------------------------------------------------




--------------------------------------- Iteration      1(  10)  ---------------------------------------


    EDDIAG:  cpu time    3.1499: real time    3.1775
  RMM-DIIS:  cpu time   14.5223: real time   14.6464
    ORTHCH:  cpu time    0.7127: real time    0.7178
       DOS:  cpu time    0.0011: real time    0.0011
    --------------------------------------------
      LOOP:  cpu time   18.3860: real time   18.5427

 eigenvalue-minimisations  :  4716
 total energy-change (2. order) :-0.1477213E+00  (-0.2370847E+00)
 number of electron     396.0000000 magnetization 
 augmentation part      396.0000000 magnetization 

 DIPCOR: dipole corrections for dipol
 direction  3 min pos   164,
 dipolmoment           0.000000      0.000000      0.000069 electrons x Angstroem
 Tr[quadrupol]     -4128.493775

 energy correction for charged system         0.000000 eV
 dipol+quadrupol energy correction           -0.000000 eV
 added-field ion interaction        -21.886265 eV  (added to PSCEN)


 Free energy of the ion-electron system (eV)
  ---------------------------------------------------
  alpha Z        PSCENC =       696.18633098
  Ewald energy   TEWEN  =    164226.44806453
  -Hartree energ DENC   =   -212025.95640762
  -exchange      EXHF   =         0.00000000
  -V(xc)+E(xc)   XCENC  =      1613.73814842
  PAW double counting   =     44243.50493509   -48017.47383163
  entropy T*S    EENTRO =        -0.03373712
  eigenvalues    EBANDS =      -908.17263252
  atomic energy  EATOM  =     50037.92390023
  Solvation  Ediel_sol  =         0.00000000
  ---------------------------------------------------
  free energy    TOTEN  =      -133.83522963 eV

  energy without entropy =     -133.80149251  energy(sigma->0) =     -133.82679535


--------------------------------------------------------------------------------------------------------




--------------------------------------- Iteration      1(  11)  ---------------------------------------


    EDDIAG:  cpu time    3.3139: real time    3.3435
  RMM-DIIS:  cpu time   16.3037: real time   16.4417
    ORTHCH:  cpu time    0.7513: real time    0.7570
       DOS:  cpu time    0.0011: real time    0.0011
    --------------------------------------------
      LOOP:  cpu time   20.3699: real time   20.5433

 eigenvalue-minimisations  :  5359
 total energy-change (2. order) :-0.2344585E-01  (-0.1926803E-01)
 number of electron     396.0000000 magnetization 
 augmentation part      396.0000000 magnetization 

 DIPCOR: dipole corrections for dipol
 direction  3 min pos   164,
 dipolmoment           0.000000      0.000000      0.000069 electrons x Angstroem
 Tr[quadrupol]     -4128.493775

 energy correction for charged system         0.000000 eV
 dipol+quadrupol energy correction           -0.000000 eV
 added-field ion interaction        -21.886265 eV  (added to PSCEN)


 Free energy of the ion-electron system (eV)
  ---------------------------------------------------
  alpha Z        PSCENC =       696.18633098
  Ewald energy   TEWEN  =    164226.44806453
  -Hartree energ DENC   =   -212025.95640762
  -exchange      EXHF   =         0.00000000
  -V(xc)+E(xc)   XCENC  =      1613.73814842
  PAW double counting   =     44243.50493509   -48017.47383163
  entropy T*S    EENTRO =        -0.03371497
  eigenvalues    EBANDS =      -908.19610052
  atomic energy  EATOM  =     50037.92390023
  Solvation  Ediel_sol  =         0.00000000
  ---------------------------------------------------
  free energy    TOTEN  =      -133.85867548 eV

  energy without entropy =     -133.82496051  energy(sigma->0) =     -133.85024674


--------------------------------------------------------------------------------------------------------




--------------------------------------- Iteration      1(  12)  ---------------------------------------


    EDDIAG:  cpu time    3.2341: real time    3.2627
  RMM-DIIS:  cpu time   13.7167: real time   13.8317
    ORTHCH:  cpu time    0.7581: real time    0.7637
       DOS:  cpu time    0.0010: real time    0.0010
    CHARGE:  cpu time    0.8128: real time    0.8197
    MIXING:  cpu time    0.0078: real time    0.0079
    --------------------------------------------
      LOOP:  cpu time   18.5306: real time   18.6867

 eigenvalue-minimisations  :  4596
 total energy-change (2. order) :-0.4442957E-03  (-0.4331525E-03)
 number of electron     395.9998182 magnetization 
 augmentation part      236.4737727 magnetization 

 DIPCOR: dipole corrections for dipol
 direction  3 min pos   164,
 dipolmoment           0.000000      0.000000      0.000069 electrons x Angstroem
 Tr[quadrupol]     -4128.493775

 energy correction for charged system         0.000000 eV
 dipol+quadrupol energy correction           -0.000000 eV
 added-field ion interaction        -21.886265 eV  (added to PSCEN)


 Broyden mixing:
  rms(total) = 0.41573E+01    rms(broyden)= 0.41572E+01
  rms(prec ) = 0.45518E+01
  weight for this iteration     100.00

 Free energy of the ion-electron system (eV)
  ---------------------------------------------------
  alpha Z        PSCENC =       696.18633098
  Ewald energy   TEWEN  =    164226.44806453
  -Hartree energ DENC   =   -212025.95640762
  -exchange      EXHF   =         0.00000000
  -V(xc)+E(xc)   XCENC  =      1613.73814842
  PAW double counting   =     44243.50493509   -48017.47383163
  entropy T*S    EENTRO =        -0.03371480
  eigenvalues    EBANDS =      -908.19654499
  atomic energy  EATOM  =     50037.92390023
  Solvation  Ediel_sol  =         0.00000000
  ---------------------------------------------------
  free energy    TOTEN  =      -133.85911978 eV

  energy without entropy =     -133.82540498  energy(sigma->0) =     -133.85069108


--------------------------------------------------------------------------------------------------------




--------------------------------------- Iteration      1(  13)  ---------------------------------------


    POTLOK:  cpu time    0.1102: real time    0.1113
    SETDIJ:  cpu time    0.0077: real time    0.0081
    EDDIAG:  cpu time    3.1447: real time    3.1717
  RMM-DIIS:  cpu time   14.2808: real time   14.4044
    ORTHCH:  cpu time    0.6886: real time    0.6934
       DOS:  cpu time    0.0011: real time    0.0011
    CHARGE:  cpu time    0.8131: real time    0.8200
    MIXING:  cpu time    0.0031: real time    0.0049
    --------------------------------------------
      LOOP:  cpu time   19.0495: real time   19.2149

 eigenvalue-minimisations  :  4408
 total energy-change (2. order) :-0.2545021E+02  (-0.3703077E+02)
 number of electron     395.9997920 magnetization 
 augmentation part      256.4195307 magnetization 

 DIPCOR: dipole corrections for dipol
 direction  3 min pos   163,
 dipolmoment           0.000000      0.000000      2.714594 electrons x Angstroem
 Tr[quadrupol]     -4129.533710

 energy correction for charged system         0.000000 eV
 dipol+quadrupol energy correction           -0.505072 eV
 added-field ion interaction         12.912241 eV  (added to PSCEN)


 Broyden mixing:
  rms(total) = 0.41258E+01    rms(broyden)= 0.41256E+01
  rms(prec ) = 0.60943E+01
  weight for this iteration     100.00

 eigenvalues of (default mixing * dielectric matrix)
  average eigenvalue GAMMA=   0.5198
  0.5198

 Free energy of the ion-electron system (eV)
  ---------------------------------------------------
  alpha Z        PSCENC =       730.47976528
  Ewald energy   TEWEN  =    164226.44806453
  -Hartree energ DENC   =   -211100.49427127
  -exchange      EXHF   =         0.00000000
  -V(xc)+E(xc)   XCENC  =      1569.95363572
  PAW double counting   =     44432.23055663   -48027.81920167
  entropy T*S    EENTRO =        -0.00054703
  eigenvalues    EBANDS =     -2028.03123107
  atomic energy  EATOM  =     50037.92390023
  Solvation  Ediel_sol  =         0.00000000
  ---------------------------------------------------
  free energy    TOTEN  =      -159.30932866 eV

  energy without entropy =     -159.30878162  energy(sigma->0) =     -159.30919190


--------------------------------------------------------------------------------------------------------




--------------------------------------- Iteration      1(  14)  ---------------------------------------


    POTLOK:  cpu time    0.0776: real time    0.0785
    SETDIJ:  cpu time    0.0056: real time    0.0056
    EDDIAG:  cpu time    3.3617: real time    3.3914
  RMM-DIIS:  cpu time   12.0407: real time   12.1400
    ORTHCH:  cpu time    0.7288: real time    0.7344
       DOS:  cpu time    0.0010: real time    0.0010
    CHARGE:  cpu time    0.9350: real time    0.9429
    MIXING:  cpu time    0.0033: real time    0.0034
    --------------------------------------------
      LOOP:  cpu time   17.1536: real time   17.2971

 eigenvalue-minimisations  :  4278
 total energy-change (2. order) : 0.1890686E+02  (-0.1167500E+02)
 number of electron     395.9998022 magnetization 
 augmentation part      257.8862738 magnetization 

 DIPCOR: dipole corrections for dipol
 direction  3 min pos   164,
 dipolmoment           0.000000      0.000000     -1.229164 electrons x Angstroem
 Tr[quadrupol]     -4130.099878

 energy correction for charged system         0.000000 eV
 dipol+quadrupol energy correction           -0.103553 eV
 added-field ion interaction        -40.328650 eV  (added to PSCEN)


 Broyden mixing:
  rms(total) = 0.23865E+01    rms(broyden)= 0.23862E+01
  rms(prec ) = 0.35540E+01
  weight for this iteration     100.00

 eigenvalues of (default mixing * dielectric matrix)
  average eigenvalue GAMMA=   0.5001
  0.7227  0.2775

 Free energy of the ion-electron system (eV)
  ---------------------------------------------------
  alpha Z        PSCENC =       677.64039319
  Ewald energy   TEWEN  =    164226.44806453
  -Hartree energ DENC   =   -211245.15040321
  -exchange      EXHF   =         0.00000000
  -V(xc)+E(xc)   XCENC  =      1572.90277284
  PAW double counting   =     44720.37763630   -48389.83561779
  entropy T*S    EENTRO =        -0.03386413
  eigenvalues    EBANDS =     -1740.67535252
  atomic energy  EATOM  =     50037.92390023
  Solvation  Ediel_sol  =         0.00000000
  ---------------------------------------------------
  free energy    TOTEN  =      -140.40247056 eV

  energy without entropy =     -140.36860643  energy(sigma->0) =     -140.39400453


--------------------------------------------------------------------------------------------------------




--------------------------------------- Iteration      1(  15)  ---------------------------------------


    POTLOK:  cpu time    0.0931: real time    0.0952
    SETDIJ:  cpu time    0.0053: real time    0.0053
    EDDIAG:  cpu time    3.2230: real time    3.2518
  RMM-DIIS:  cpu time   11.7455: real time   11.8417
    ORTHCH:  cpu time    0.7404: real time    0.7458
       DOS:  cpu time    0.0011: real time    0.0011
    CHARGE:  cpu time    0.8043: real time    0.8110
    MIXING:  cpu time    0.0033: real time    0.0033
    --------------------------------------------
      LOOP:  cpu time   16.6159: real time   16.7552

 eigenvalue-minimisations  :  3952
 total energy-change (2. order) : 0.2789203E+02  (-0.2228939E+01)
 number of electron     395.9997981 magnetization 
 augmentation part      255.9781497 magnetization 

 DIPCOR: dipole corrections for dipol
 direction  3 min pos   153,
 dipolmoment           0.000000      0.000000      0.658606 electrons x Angstroem
 Tr[quadrupol]     -4130.310896

 energy correction for charged system         0.000000 eV
 dipol+quadrupol energy correction           -0.029730 eV
 added-field ion interaction         29.547965 eV  (added to PSCEN)


 Broyden mixing:
  rms(total) = 0.13760E+01    rms(broyden)= 0.13758E+01
  rms(prec ) = 0.15082E+01
  weight for this iteration     100.00

 eigenvalues of (default mixing * dielectric matrix)
  average eigenvalue GAMMA=   0.3699
  0.7024  0.2689  0.1383

 Free energy of the ion-electron system (eV)
  ---------------------------------------------------
  alpha Z        PSCENC =       747.59083107
  Ewald energy   TEWEN  =    164226.44806453
  -Hartree energ DENC   =   -211383.24398942
  -exchange      EXHF   =         0.00000000
  -V(xc)+E(xc)   XCENC  =      1578.91660170
  PAW double counting   =     45162.68346790   -48924.75876675
  entropy T*S    EENTRO =         0.04202198
  eigenvalues    EBANDS =     -1558.11256916
  atomic energy  EATOM  =     50037.92390023
  Solvation  Ediel_sol  =         0.00000000
  ---------------------------------------------------
  free energy    TOTEN  =      -112.51043792 eV

  energy without entropy =     -112.55245991  energy(sigma->0) =     -112.52094342


--------------------------------------------------------------------------------------------------------




--------------------------------------- Iteration      1(  16)  ---------------------------------------


    POTLOK:  cpu time    0.0728: real time    0.0748
    SETDIJ:  cpu time    0.0053: real time    0.0053
    EDDIAG:  cpu time    3.2937: real time    3.3222
  RMM-DIIS:  cpu time   12.2103: real time   12.3110
    ORTHCH:  cpu time    0.6934: real time    0.6992
       DOS:  cpu time    0.0009: real time    0.0009
    CHARGE:  cpu time    0.9039: real time    0.9113
    MIXING:  cpu time    0.0044: real time    0.0044
    --------------------------------------------
      LOOP:  cpu time   17.1847: real time   17.3291

 eigenvalue-minimisations  :  4022
 total energy-change (2. order) : 0.2170948E+01  (-0.2000270E+00)
 number of electron     395.9997986 magnetization 
 augmentation part      255.9047692 magnetization 

 DIPCOR: dipole corrections for dipol
 direction  3 min pos   147,
 dipolmoment           0.000000      0.000000      0.569327 electrons x Angstroem
 Tr[quadrupol]     -4129.755243

 energy correction for charged system         0.000000 eV
 dipol+quadrupol energy correction           -0.022216 eV
 added-field ion interaction         58.039085 eV  (added to PSCEN)


 Broyden mixing:
  rms(total) = 0.95586E+00    rms(broyden)= 0.95585E+00
  rms(prec ) = 0.10482E+01
  weight for this iteration     100.00

 eigenvalues of (default mixing * dielectric matrix)
  average eigenvalue GAMMA=   0.5914
  0.8391  0.8391  0.2603  0.4272

 Free energy of the ion-electron system (eV)
  ---------------------------------------------------
  alpha Z        PSCENC =       776.08946486
  Ewald energy   TEWEN  =    164226.44806453
  -Hartree energ DENC   =   -211393.92411850
  -exchange      EXHF   =         0.00000000
  -V(xc)+E(xc)   XCENC  =      1579.63750110
  PAW double counting   =     45248.60755379   -49018.74071107
  entropy T*S    EENTRO =         0.03903989
  eigenvalues    EBANDS =     -1566.42018466
  atomic energy  EATOM  =     50037.92390023
  Solvation  Ediel_sol  =         0.00000000
  ---------------------------------------------------
  free energy    TOTEN  =      -110.33948984 eV

  energy without entropy =     -110.37852973  energy(sigma->0) =     -110.34924981


--------------------------------------------------------------------------------------------------------




--------------------------------------- Iteration      1(  17)  ---------------------------------------


    POTLOK:  cpu time    0.1023: real time    0.1034
    SETDIJ:  cpu time    0.0054: real time    0.0055
    EDDIAG:  cpu time    3.1976: real time    3.2256
  RMM-DIIS:  cpu time   10.5890: real time   10.6762
    ORTHCH:  cpu time    0.7081: real time    0.7132
       DOS:  cpu time    0.0009: real time    0.0009
    CHARGE:  cpu time    0.9042: real time    0.9118
    MIXING:  cpu time    0.0055: real time    0.0055
    --------------------------------------------
      LOOP:  cpu time   15.5130: real time   15.6421

 eigenvalue-minimisations  :  4039
 total energy-change (2. order) : 0.2119776E+01  (-0.7247527E+00)
 number of electron     395.9998001 magnetization 
 augmentation part      253.6495522 magnetization 

 DIPCOR: dipole corrections for dipol
 direction  3 min pos   146,
 dipolmoment           0.000000      0.000000      0.559015 electrons x Angstroem
 Tr[quadrupol]     -4130.570333

 energy correction for charged system         0.000000 eV
 dipol+quadrupol energy correction           -0.021419 eV
 added-field ion interaction         62.959743 eV  (added to PSCEN)


 Broyden mixing:
  rms(total) = 0.28993E+00    rms(broyden)= 0.28990E+00
  rms(prec ) = 0.33343E+00
  weight for this iteration     100.00

 eigenvalues of (default mixing * dielectric matrix)
  average eigenvalue GAMMA=   0.5864
  0.8948  0.8948  0.2705  0.4439  0.4279

 Free energy of the ion-electron system (eV)
  ---------------------------------------------------
  alpha Z        PSCENC =       781.01092128
  Ewald energy   TEWEN  =    164226.44806453
  -Hartree energ DENC   =   -211505.46102720
  -exchange      EXHF   =         0.00000000
  -V(xc)+E(xc)   XCENC  =      1583.03262709
  PAW double counting   =     45714.41177136   -49521.80363502
  entropy T*S    EENTRO =         0.02441826
  eigenvalues    EBANDS =     -1423.80675442
  atomic energy  EATOM  =     50037.92390023
  Solvation  Ediel_sol  =         0.00000000
  ---------------------------------------------------
  free energy    TOTEN  =      -108.21971390 eV

  energy without entropy =     -108.24413215  energy(sigma->0) =     -108.22581846


--------------------------------------------------------------------------------------------------------




--------------------------------------- Iteration      1(  18)  ---------------------------------------


    POTLOK:  cpu time    0.1009: real time    0.1018
    SETDIJ:  cpu time    0.0052: real time    0.0053
    EDDIAG:  cpu time    3.2375: real time    3.2650
  RMM-DIIS:  cpu time   12.4138: real time   12.5206
    ORTHCH:  cpu time    0.7356: real time    0.7411
       DOS:  cpu time    0.0010: real time    0.0010
    CHARGE:  cpu time    0.8511: real time    0.8580
    MIXING:  cpu time    0.0037: real time    0.0037
    --------------------------------------------
      LOOP:  cpu time   17.3486: real time   17.4965

 eigenvalue-minimisations  :  4211
 total energy-change (2. order) : 0.8834214E-01  (-0.1856214E+00)
 number of electron     395.9998006 magnetization 
 augmentation part      253.0036751 magnetization 

 DIPCOR: dipole corrections for dipol
 direction  3 min pos   146,
 dipolmoment           0.000000      0.000000      0.624961 electrons x Angstroem
 Tr[quadrupol]     -4131.086807

 energy correction for charged system         0.000000 eV
 dipol+quadrupol energy correction           -0.026770 eV
 added-field ion interaction         58.345614 eV  (added to PSCEN)


 Broyden mixing:
  rms(total) = 0.21566E+00    rms(broyden)= 0.21564E+00
  rms(prec ) = 0.23432E+00
  weight for this iteration     100.00

 eigenvalues of (default mixing * dielectric matrix)
  average eigenvalue GAMMA=   0.7732
  1.9524  0.7902  0.7902  0.4683  0.2681  0.3698

 Free energy of the ion-electron system (eV)
  ---------------------------------------------------
  alpha Z        PSCENC =       776.39144049
  Ewald energy   TEWEN  =    164226.44806453
  -Hartree energ DENC   =   -211542.78295345
  -exchange      EXHF   =         0.00000000
  -V(xc)+E(xc)   XCENC  =      1583.38977368
  PAW double counting   =     45990.31689785   -49815.32918152
  entropy T*S    EENTRO =         0.01272740
  eigenvalues    EBANDS =     -1364.50204095
  atomic energy  EATOM  =     50037.92390023
  Solvation  Ediel_sol  =         0.00000000
  ---------------------------------------------------
  free energy    TOTEN  =      -108.13137176 eV

  energy without entropy =     -108.14409916  energy(sigma->0) =     -108.13455361


--------------------------------------------------------------------------------------------------------




--------------------------------------- Iteration      1(  19)  ---------------------------------------


    POTLOK:  cpu time    0.0826: real time    0.0843
    SETDIJ:  cpu time    0.0057: real time    0.0057
    EDDIAG:  cpu time    3.3464: real time    3.3764
  RMM-DIIS:  cpu time   12.9766: real time   13.0856
    ORTHCH:  cpu time    0.7550: real time    0.7607
       DOS:  cpu time    0.0010: real time    0.0010
    CHARGE:  cpu time    0.7431: real time    0.7493
    MIXING:  cpu time    0.0031: real time    0.0031
    --------------------------------------------
      LOOP:  cpu time   17.9136: real time   18.0663

 eigenvalue-minimisations  :  4195
 total energy-change (2. order) : 0.8325848E-01  (-0.2392093E-01)
 number of electron     395.9998004 magnetization 
 augmentation part      253.3679423 magnetization 

 DIPCOR: dipole corrections for dipol
 direction  3 min pos   146,
 dipolmoment           0.000000      0.000000      0.674907 electrons x Angstroem
 Tr[quadrupol]     -4131.628703

 energy correction for charged system         0.000000 eV
 dipol+quadrupol energy correction           -0.031220 eV
 added-field ion interaction         54.850927 eV  (added to PSCEN)


 Broyden mixing:
  rms(total) = 0.10069E+00    rms(broyden)= 0.10069E+00
  rms(prec ) = 0.11341E+00
  weight for this iteration     100.00

 eigenvalues of (default mixing * dielectric matrix)
  average eigenvalue GAMMA=   0.7645
  2.1666  0.8248  0.8248  0.2666  0.4456  0.4456  0.3775

 Free energy of the ion-electron system (eV)
  ---------------------------------------------------
  alpha Z        PSCENC =       772.89230356
  Ewald energy   TEWEN  =    164226.44806453
  -Hartree energ DENC   =   -211541.93864732
  -exchange      EXHF   =         0.00000000
  -V(xc)+E(xc)   XCENC  =      1582.00641109
  PAW double counting   =     46241.49345217   -50077.88473320
  entropy T*S    EENTRO =         0.00669904
  eigenvalues    EBANDS =     -1348.99556337
  atomic energy  EATOM  =     50037.92390023
  Solvation  Ediel_sol  =         0.00000000
  ---------------------------------------------------
  free energy    TOTEN  =      -108.04811328 eV

  energy without entropy =     -108.05481232  energy(sigma->0) =     -108.04978804


--------------------------------------------------------------------------------------------------------




--------------------------------------- Iteration      1(  20)  ---------------------------------------


    POTLOK:  cpu time    0.0826: real time    0.0838
    SETDIJ:  cpu time    0.0058: real time    0.0059
    EDDIAG:  cpu time    3.3531: real time    3.3823
  RMM-DIIS:  cpu time   11.6713: real time   11.7705
    ORTHCH:  cpu time    0.6299: real time    0.6341
       DOS:  cpu time    0.0010: real time    0.0010
    CHARGE:  cpu time    0.6361: real time    0.6409
    MIXING:  cpu time    0.0034: real time    0.0034
    --------------------------------------------
      LOOP:  cpu time   16.3832: real time   16.5219

 eigenvalue-minimisations  :  4112
 total energy-change (2. order) : 0.1777997E-01  (-0.1293436E-01)
 number of electron     395.9998001 magnetization 
 augmentation part      253.7196525 magnetization 

 DIPCOR: dipole corrections for dipol
 direction  3 min pos   147,
 dipolmoment           0.000000      0.000000      0.645929 electrons x Angstroem
 Tr[quadrupol]     -4132.159531

 energy correction for charged system         0.000000 eV
 dipol+quadrupol energy correction           -0.028597 eV
 added-field ion interaction         53.040985 eV  (added to PSCEN)


 Broyden mixing:
  rms(total) = 0.71886E-01    rms(broyden)= 0.71883E-01
  rms(prec ) = 0.82271E-01
  weight for this iteration     100.00

 eigenvalues of (default mixing * dielectric matrix)
  average eigenvalue GAMMA=   0.8671
  2.5014  1.2771  0.8033  0.8033  0.2668  0.4935  0.3905  0.4007

 Free energy of the ion-electron system (eV)
  ---------------------------------------------------
  alpha Z        PSCENC =       771.08498462
  Ewald energy   TEWEN  =    164226.44806453
  -Hartree energ DENC   =   -211541.02150303
  -exchange      EXHF   =         0.00000000
  -V(xc)+E(xc)   XCENC  =      1581.20171886
  PAW double counting   =     46330.44909035   -50169.15946948
  entropy T*S    EENTRO =         0.00467898
  eigenvalues    EBANDS =     -1344.96179835
  atomic energy  EATOM  =     50037.92390023
  Solvation  Ediel_sol  =         0.00000000
  ---------------------------------------------------
  free energy    TOTEN  =      -108.03033330 eV

  energy without entropy =     -108.03501228  energy(sigma->0) =     -108.03150305


--------------------------------------------------------------------------------------------------------




--------------------------------------- Iteration      1(  21)  ---------------------------------------


    POTLOK:  cpu time    0.0754: real time    0.0761
    SETDIJ:  cpu time    0.0052: real time    0.0053
    EDDIAG:  cpu time    2.4884: real time    2.5091
  RMM-DIIS:  cpu time   11.5465: real time   11.6388
    ORTHCH:  cpu time    0.7299: real time    0.7352
       DOS:  cpu time    0.0010: real time    0.0010
    CHARGE:  cpu time    0.9386: real time    0.9467
    MIXING:  cpu time    0.0057: real time    0.0058
    --------------------------------------------
      LOOP:  cpu time   15.7908: real time   15.9180

 eigenvalue-minimisations  :  4127
 total energy-change (2. order) : 0.1360497E-01  (-0.1532422E-02)
 number of electron     395.9998001 magnetization 
 augmentation part      253.7072021 magnetization 

 DIPCOR: dipole corrections for dipol
 direction  3 min pos   147,
 dipolmoment           0.000000      0.000000      0.634316 electrons x Angstroem
 Tr[quadrupol]     -4132.510181

 energy correction for charged system         0.000000 eV
 dipol+quadrupol energy correction           -0.027578 eV
 added-field ion interaction         53.798714 eV  (added to PSCEN)


 Broyden mixing:
  rms(total) = 0.45690E-01    rms(broyden)= 0.45689E-01
  rms(prec ) = 0.54718E-01
  weight for this iteration     100.00

 eigenvalues of (default mixing * dielectric matrix)
  average eigenvalue GAMMA=   0.9091
  2.5417  1.7992  0.8121  0.8121  0.2670  0.5943  0.5588  0.4196  0.3773

 Free energy of the ion-electron system (eV)
  ---------------------------------------------------
  alpha Z        PSCENC =       771.84373315
  Ewald energy   TEWEN  =    164226.44806453
  -Hartree energ DENC   =   -211554.84016997
  -exchange      EXHF   =         0.00000000
  -V(xc)+E(xc)   XCENC  =      1581.14787495
  PAW double counting   =     46401.84976619   -50243.33552131
  entropy T*S    EENTRO =         0.00148522
  eigenvalues    EBANDS =     -1329.05586132
  atomic energy  EATOM  =     50037.92390023
  Solvation  Ediel_sol  =         0.00000000
  ---------------------------------------------------
  free energy    TOTEN  =      -108.01672834 eV

  energy without entropy =     -108.01821356  energy(sigma->0) =     -108.01709964


--------------------------------------------------------------------------------------------------------




--------------------------------------- Iteration      1(  22)  ---------------------------------------


    POTLOK:  cpu time    0.1016: real time    0.1031
    SETDIJ:  cpu time    0.0055: real time    0.0056
    EDDIAG:  cpu time    3.4296: real time    3.4600
  RMM-DIIS:  cpu time   13.5183: real time   13.6342
    ORTHCH:  cpu time    0.7176: real time    0.7228
       DOS:  cpu time    0.0011: real time    0.0011
    CHARGE:  cpu time    0.9272: real time    0.9349
    MIXING:  cpu time    0.0075: real time    0.0076
    --------------------------------------------
      LOOP:  cpu time   18.7083: real time   18.8691

 eigenvalue-minimisations  :  4124
 total energy-change (2. order) : 0.1086129E-01  (-0.2128939E-02)
 number of electron     395.9998001 magnetization 
 augmentation part      253.5909300 magnetization 

 DIPCOR: dipole corrections for dipol
 direction  3 min pos   148,
 dipolmoment           0.000000      0.000000      0.631176 electrons x Angstroem
 Tr[quadrupol]     -4132.889475

 energy correction for charged system         0.000000 eV
 dipol+quadrupol energy correction           -0.027305 eV
 added-field ion interaction         50.096451 eV  (added to PSCEN)


 Broyden mixing:
  rms(total) = 0.15991E-01    rms(broyden)= 0.15989E-01
  rms(prec ) = 0.21280E-01
  weight for this iteration     100.00

 eigenvalues of (default mixing * dielectric matrix)
  average eigenvalue GAMMA=   0.9578
  2.4171  2.4171  0.7955  0.7955  0.8446  0.7573  0.2670  0.4869  0.3771  0.4199

 Free energy of the ion-electron system (eV)
  ---------------------------------------------------
  alpha Z        PSCENC =       768.14174174
  Ewald energy   TEWEN  =    164226.44806453
  -Hartree energ DENC   =   -211573.68949260
  -exchange      EXHF   =         0.00000000
  -V(xc)+E(xc)   XCENC  =      1581.36890775
  PAW double counting   =     46436.43287134   -50279.29800798
  entropy T*S    EENTRO =        -0.00145508
  eigenvalues    EBANDS =     -1305.33239697
  atomic energy  EATOM  =     50037.92390023
  Solvation  Ediel_sol  =         0.00000000
  ---------------------------------------------------
  free energy    TOTEN  =      -108.00586704 eV

  energy without entropy =     -108.00441196  energy(sigma->0) =     -108.00550327


--------------------------------------------------------------------------------------------------------




--------------------------------------- Iteration      1(  23)  ---------------------------------------


    POTLOK:  cpu time    0.1022: real time    0.1035
    SETDIJ:  cpu time    0.0051: real time    0.0052
    EDDIAG:  cpu time    3.4167: real time    3.4463
  RMM-DIIS:  cpu time   13.6733: real time   13.7884
    ORTHCH:  cpu time    0.7600: real time    0.7655
       DOS:  cpu time    0.0010: real time    0.0010
    CHARGE:  cpu time    0.9229: real time    0.9307
    MIXING:  cpu time    0.0054: real time    0.0054
    --------------------------------------------
      LOOP:  cpu time   18.8867: real time   19.0458

 eigenvalue-minimisations  :  4057
 total energy-change (2. order) : 0.5096800E-02  (-0.5139994E-03)
 number of electron     395.9998001 magnetization 
 augmentation part      253.6076242 magnetization 

 DIPCOR: dipole corrections for dipol
 direction  3 min pos   149,
 dipolmoment           0.000000      0.000000      0.613364 electrons x Angstroem
 Tr[quadrupol]     -4133.238680

 energy correction for charged system         0.000000 eV
 dipol+quadrupol energy correction           -0.025786 eV
 added-field ion interaction         47.183370 eV  (added to PSCEN)


 Broyden mixing:
  rms(total) = 0.10336E-01    rms(broyden)= 0.10336E-01
  rms(prec ) = 0.14272E-01
  weight for this iteration     100.00

 eigenvalues of (default mixing * dielectric matrix)
  average eigenvalue GAMMA=   0.9921
  2.5771  2.5771  0.7971  0.7971  1.0177  0.8608  0.7369  0.2670  0.4882  0.3773
  0.4173

 Free energy of the ion-electron system (eV)
  ---------------------------------------------------
  alpha Z        PSCENC =       765.23018109
  Ewald energy   TEWEN  =    164226.44806453
  -Hartree energ DENC   =   -211587.23750514
  -exchange      EXHF   =         0.00000000
  -V(xc)+E(xc)   XCENC  =      1581.43575297
  PAW double counting   =     46419.45745786   -50260.89016588
  entropy T*S    EENTRO =        -0.00334255
  eigenvalues    EBANDS =     -1290.36511335
  atomic energy  EATOM  =     50037.92390023
  Solvation  Ediel_sol  =         0.00000000
  ---------------------------------------------------
  free energy    TOTEN  =      -108.00077024 eV

  energy without entropy =     -107.99742770  energy(sigma->0) =     -107.99993461


--------------------------------------------------------------------------------------------------------




--------------------------------------- Iteration      1(  24)  ---------------------------------------


    POTLOK:  cpu time    0.1029: real time    0.1039
    SETDIJ:  cpu time    0.0057: real time    0.0057
    EDDIAG:  cpu time    3.4930: real time    3.5244
  RMM-DIIS:  cpu time   13.7497: real time   13.8654
    ORTHCH:  cpu time    0.7086: real time    0.7138
       DOS:  cpu time    0.0010: real time    0.0010
    CHARGE:  cpu time    0.9266: real time    0.9342
    MIXING:  cpu time    0.0054: real time    0.0055
    --------------------------------------------
      LOOP:  cpu time   18.9930: real time   19.1540

 eigenvalue-minimisations  :  4115
 total energy-change (2. order) : 0.1461993E-02  (-0.1955260E-03)
 number of electron     395.9998001 magnetization 
 augmentation part      253.5910807 magnetization 

 DIPCOR: dipole corrections for dipol
 direction  3 min pos   149,
 dipolmoment           0.000000      0.000000      0.600919 electrons x Angstroem
 Tr[quadrupol]     -4133.429547

 energy correction for charged system         0.000000 eV
 dipol+quadrupol energy correction           -0.024750 eV
 added-field ion interaction         47.877889 eV  (added to PSCEN)


 Broyden mixing:
  rms(total) = 0.64530E-02    rms(broyden)= 0.64527E-02
  rms(prec ) = 0.87992E-02
  weight for this iteration     100.00

 eigenvalues of (default mixing * dielectric matrix)
  average eigenvalue GAMMA=   1.0644
  2.9330  2.9330  1.6313  0.8024  0.8024  0.9254  0.7269  0.2670  0.5079  0.3769
  0.4201  0.4465

 Free energy of the ion-electron system (eV)
  ---------------------------------------------------
  alpha Z        PSCENC =       765.92573531
  Ewald energy   TEWEN  =    164226.44806453
  -Hartree energ DENC   =   -211597.74765617
  -exchange      EXHF   =         0.00000000
  -V(xc)+E(xc)   XCENC  =      1581.49431674
  PAW double counting   =     46412.96444789   -50254.12728958
  entropy T*S    EENTRO =        -0.00523609
  eigenvalues    EBANDS =     -1280.87559112
  atomic energy  EATOM  =     50037.92390023
  Solvation  Ediel_sol  =         0.00000000
  ---------------------------------------------------
  free energy    TOTEN  =      -107.99930825 eV

  energy without entropy =     -107.99407216  energy(sigma->0) =     -107.99799923


--------------------------------------------------------------------------------------------------------




--------------------------------------- Iteration      1(  25)  ---------------------------------------


    POTLOK:  cpu time    0.1012: real time    0.1022
    SETDIJ:  cpu time    0.0058: real time    0.0058
    EDDIAG:  cpu time    3.4221: real time    3.4522
  RMM-DIIS:  cpu time   13.8421: real time   13.9603
    ORTHCH:  cpu time    0.7171: real time    0.7224
       DOS:  cpu time    0.0010: real time    0.0011
    CHARGE:  cpu time    0.9360: real time    0.9439
    MIXING:  cpu time    0.0070: real time    0.0070
    --------------------------------------------
      LOOP:  cpu time   19.0324: real time   19.1949

 eigenvalue-minimisations  :  4032
 total energy-change (2. order) :-0.4073910E-03  (-0.7799341E-04)
 number of electron     395.9998001 magnetization 
 augmentation part      253.5860791 magnetization 

 DIPCOR: dipole corrections for dipol
 direction  3 min pos   150,
 dipolmoment           0.000000      0.000000      0.587390 electrons x Angstroem
 Tr[quadrupol]     -4133.636776

 energy correction for charged system         0.000000 eV
 dipol+quadrupol energy correction           -0.023648 eV
 added-field ion interaction         44.519068 eV  (added to PSCEN)


 Broyden mixing:
  rms(total) = 0.60167E-02    rms(broyden)= 0.60166E-02
  rms(prec ) = 0.82935E-02
  weight for this iteration     100.00

 eigenvalues of (default mixing * dielectric matrix)
  average eigenvalue GAMMA=   1.1387
  3.4718  2.8884  1.8539  1.4299  0.8003  0.8003  0.7846  0.7846  0.2670  0.3772
  0.4849  0.4172  0.4428

 Free energy of the ion-electron system (eV)
  ---------------------------------------------------
  alpha Z        PSCENC =       762.56801653
  Ewald energy   TEWEN  =    164226.44806453
  -Hartree energ DENC   =   -211603.53369902
  -exchange      EXHF   =         0.00000000
  -V(xc)+E(xc)   XCENC  =      1581.51456153
  PAW double counting   =     46408.91843597   -50249.99868951
  entropy T*S    EENTRO =        -0.00617309
  eigenvalues    EBANDS =     -1271.83413281
  atomic energy  EATOM  =     50037.92390023
  Solvation  Ediel_sol  =         0.00000000
  ---------------------------------------------------
  free energy    TOTEN  =      -107.99971564 eV

  energy without entropy =     -107.99354255  energy(sigma->0) =     -107.99817237


--------------------------------------------------------------------------------------------------------




--------------------------------------- Iteration      1(  26)  ---------------------------------------


    POTLOK:  cpu time    0.0989: real time    0.1001
    SETDIJ:  cpu time    0.0051: real time    0.0051
    EDDIAG:  cpu time    3.1464: real time    3.1729
  RMM-DIIS:  cpu time   12.9318: real time   13.0402
    ORTHCH:  cpu time    0.7447: real time    0.7501
       DOS:  cpu time    0.0012: real time    0.0012
    CHARGE:  cpu time    0.9488: real time    0.9569
    MIXING:  cpu time    0.0067: real time    0.0067
    --------------------------------------------
      LOOP:  cpu time   17.8835: real time   18.0333

 eigenvalue-minimisations  :  4019
 total energy-change (2. order) :-0.1571484E-02  (-0.4929860E-04)
 number of electron     395.9998001 magnetization 
 augmentation part      253.5997775 magnetization 

 DIPCOR: dipole corrections for dipol
 direction  3 min pos   160,
 dipolmoment           0.000000      0.000000      0.554734 electrons x Angstroem
 Tr[quadrupol]     -4134.640364

 energy correction for charged system         0.000000 eV
 dipol+quadrupol energy correction           -0.021092 eV
 added-field ion interaction          3.507411 eV  (added to PSCEN)


 Broyden mixing:
  rms(total) = 0.65446E-02    rms(broyden)= 0.65445E-02
  rms(prec ) = 0.15402E-01
  weight for this iteration     100.00

 eigenvalues of (default mixing * dielectric matrix)
  average eigenvalue GAMMA=   1.2011
  3.6905  3.3006  2.2700  1.6386  0.8000  0.8000  0.8542  0.8542  0.2670  0.6245
  0.3772  0.4811  0.4181  0.4397

 Free energy of the ion-electron system (eV)
  ---------------------------------------------------
  alpha Z        PSCENC =       721.55891592
  Ewald energy   TEWEN  =    164226.44806453
  -Hartree energ DENC   =   -211604.89307991
  -exchange      EXHF   =         0.00000000
  -V(xc)+E(xc)   XCENC  =      1581.48865348
  PAW double counting   =     46406.34120720   -50247.44263765
  entropy T*S    EENTRO =        -0.00622995
  eigenvalues    EBANDS =     -1229.42008097
  atomic energy  EATOM  =     50037.92390023
  Solvation  Ediel_sol  =         0.00000000
  ---------------------------------------------------
  free energy    TOTEN  =      -108.00128713 eV

  energy without entropy =     -107.99505718  energy(sigma->0) =     -107.99972964


--------------------------------------------------------------------------------------------------------




--------------------------------------- Iteration      1(  27)  ---------------------------------------


    POTLOK:  cpu time    0.0990: real time    0.1005
    SETDIJ:  cpu time    0.0056: real time    0.0057
    EDDIAG:  cpu time    3.4403: real time    3.4716
  RMM-DIIS:  cpu time   13.9541: real time   14.0706
    ORTHCH:  cpu time    0.7509: real time    0.7562
       DOS:  cpu time    0.0010: real time    0.0011
    CHARGE:  cpu time    0.9154: real time    0.9232
    MIXING:  cpu time    0.0064: real time    0.0065
    --------------------------------------------
      LOOP:  cpu time   19.1728: real time   19.3353

 eigenvalue-minimisations  :  4057
 total energy-change (2. order) :-0.5467186E-03  (-0.6319898E-04)
 number of electron     395.9998001 magnetization 
 augmentation part      253.6039392 magnetization 

 DIPCOR: dipole corrections for dipol
 direction  3 min pos   156,
 dipolmoment           0.000000      0.000000      0.579737 electrons x Angstroem
 Tr[quadrupol]     -4134.279224

 energy correction for charged system         0.000000 eV
 dipol+quadrupol energy correction           -0.023036 eV
 added-field ion interaction         20.010243 eV  (added to PSCEN)


 Broyden mixing:
  rms(total) = 0.56555E-02    rms(broyden)= 0.56550E-02
  rms(prec ) = 0.11780E-01
  weight for this iteration     100.00

 eigenvalues of (default mixing * dielectric matrix)
  average eigenvalue GAMMA=   1.2310
  4.2690  3.3957  2.4189  1.6726  1.0760  0.7997  0.7997  0.8081  0.8081  0.2670
  0.4874  0.3774  0.4453  0.4128  0.4276

 Free energy of the ion-electron system (eV)
  ---------------------------------------------------
  alpha Z        PSCENC =       738.05980332
  Ewald energy   TEWEN  =    164226.44806453
  -Hartree energ DENC   =   -211606.03764882
  -exchange      EXHF   =         0.00000000
  -V(xc)+E(xc)   XCENC  =      1581.47751930
  PAW double counting   =     46406.05533874   -50247.25661896
  entropy T*S    EENTRO =        -0.00581507
  eigenvalues    EBANDS =     -1244.66637712
  atomic energy  EATOM  =     50037.92390023
  Solvation  Ediel_sol  =         0.00000000
  ---------------------------------------------------
  free energy    TOTEN  =      -108.00183384 eV

  energy without entropy =     -107.99601878  energy(sigma->0) =     -108.00038008


--------------------------------------------------------------------------------------------------------




--------------------------------------- Iteration      1(  28)  ---------------------------------------


    POTLOK:  cpu time    0.1011: real time    0.1033
    SETDIJ:  cpu time    0.0058: real time    0.0058
    EDDIAG:  cpu time    3.3725: real time    3.4023
  RMM-DIIS:  cpu time   12.5574: real time   12.6646
    ORTHCH:  cpu time    0.7508: real time    0.7562
       DOS:  cpu time    0.0011: real time    0.0011
    CHARGE:  cpu time    0.9192: real time    0.9269
    MIXING:  cpu time    0.0073: real time    0.0073
    --------------------------------------------
      LOOP:  cpu time   17.7149: real time   17.8675

 eigenvalue-minimisations  :  3703
 total energy-change (2. order) :-0.1799679E-03  (-0.1226228E-04)
 number of electron     395.9998001 magnetization 
 augmentation part      253.5953163 magnetization 

 DIPCOR: dipole corrections for dipol
 direction  3 min pos   162,
 dipolmoment           0.000000      0.000000      0.572038 electrons x Angstroem
 Tr[quadrupol]     -4134.913286

 energy correction for charged system         0.000000 eV
 dipol+quadrupol energy correction           -0.022428 eV
 added-field ion interaction         -4.932325 eV  (added to PSCEN)


 Broyden mixing:
  rms(total) = 0.27949E-02    rms(broyden)= 0.27949E-02
  rms(prec ) = 0.67106E-02
  weight for this iteration     100.00

 eigenvalues of (default mixing * dielectric matrix)
  average eigenvalue GAMMA=   1.2421
  4.8078  3.1573  2.3991  1.6872  0.7993  0.7993  1.1449  1.0057  0.8982  0.7250
  0.2670  0.3773  0.4871  0.4639  0.4144  0.4400

 Free energy of the ion-electron system (eV)
  ---------------------------------------------------
  alpha Z        PSCENC =       713.11784359
  Ewald energy   TEWEN  =    164226.44806453
  -Hartree energ DENC   =   -211607.59013539
  -exchange      EXHF   =         0.00000000
  -V(xc)+E(xc)   XCENC  =      1581.49122607
  PAW double counting   =     46407.32974137   -50248.61398483
  entropy T*S    EENTRO =        -0.00603595
  eigenvalues    EBANDS =     -1218.10263342
  atomic energy  EATOM  =     50037.92390023
  Solvation  Ediel_sol  =         0.00000000
  ---------------------------------------------------
  free energy    TOTEN  =      -108.00201381 eV

  energy without entropy =     -107.99597786  energy(sigma->0) =     -108.00050482


--------------------------------------------------------------------------------------------------------




--------------------------------------- Iteration      1(  29)  ---------------------------------------


    POTLOK:  cpu time    0.1051: real time    0.1065
    SETDIJ:  cpu time    0.0054: real time    0.0054
    EDDIAG:  cpu time    3.5042: real time    3.5351
  RMM-DIIS:  cpu time   10.2697: real time   10.3535
    ORTHCH:  cpu time    0.7193: real time    0.7243
       DOS:  cpu time    0.0012: real time    0.0012
    CHARGE:  cpu time    0.9363: real time    0.9443
    MIXING:  cpu time    0.0069: real time    0.0069
    --------------------------------------------
      LOOP:  cpu time   15.5480: real time   15.6772

 eigenvalue-minimisations  :  3100
 total energy-change (2. order) :-0.9606042E-04  (-0.5322953E-05)
 number of electron     395.9998001 magnetization 
 augmentation part      253.5944800 magnetization 

 DIPCOR: dipole corrections for dipol
 direction  3 min pos   158,
 dipolmoment           0.000000      0.000000      0.570892 electrons x Angstroem
 Tr[quadrupol]     -4134.538714

 energy correction for charged system         0.000000 eV
 dipol+quadrupol energy correction           -0.022338 eV
 added-field ion interaction         11.828148 eV  (added to PSCEN)


 Broyden mixing:
  rms(total) = 0.13641E-02    rms(broyden)= 0.13640E-02
  rms(prec ) = 0.20329E-02
  weight for this iteration     100.00

 eigenvalues of (default mixing * dielectric matrix)
  average eigenvalue GAMMA=   1.2870
  5.5485  3.0410  2.5034  1.9200  1.4516  1.1599  0.7993  0.7993  0.8314  0.8314
  0.2670  0.5739  0.4860  0.3773  0.4431  0.4337  0.4118

 Free energy of the ion-electron system (eV)
  ---------------------------------------------------
  alpha Z        PSCENC =       729.87840574
  Ewald energy   TEWEN  =    164226.44806453
  -Hartree energ DENC   =   -211608.26019735
  -exchange      EXHF   =         0.00000000
  -V(xc)+E(xc)   XCENC  =      1581.49452054
  PAW double counting   =     46407.82755004   -50249.07620948
  entropy T*S    EENTRO =        -0.00610667
  eigenvalues    EBANDS =     -1234.23203746
  atomic energy  EATOM  =     50037.92390023
  Solvation  Ediel_sol  =         0.00000000
  ---------------------------------------------------
  free energy    TOTEN  =      -108.00210987 eV

  energy without entropy =     -107.99600321  energy(sigma->0) =     -108.00058321


--------------------------------------------------------------------------------------------------------




--------------------------------------- Iteration      1(  30)  ---------------------------------------


    POTLOK:  cpu time    0.1046: real time    0.1058
    SETDIJ:  cpu time    0.0056: real time    0.0056
    EDDIAG:  cpu time    3.4403: real time    3.4707
  RMM-DIIS:  cpu time    8.3768: real time    8.4451
    ORTHCH:  cpu time    0.7523: real time    0.7580
       DOS:  cpu time    0.0010: real time    0.0010
    CHARGE:  cpu time    0.8450: real time    0.8519
    MIXING:  cpu time    0.0066: real time    0.0067
    --------------------------------------------
      LOOP:  cpu time   13.5322: real time   13.6448

 eigenvalue-minimisations  :  2471
 total energy-change (2. order) :-0.1213625E-03  (-0.1913504E-05)
 number of electron     395.9998001 magnetization 
 augmentation part      253.5960831 magnetization 

 DIPCOR: dipole corrections for dipol
 direction  3 min pos   158,
 dipolmoment           0.000000      0.000000      0.571102 electrons x Angstroem
 Tr[quadrupol]     -4134.555815

 energy correction for charged system         0.000000 eV
 dipol+quadrupol energy correction           -0.022355 eV
 added-field ion interaction         11.825356 eV  (added to PSCEN)


 Broyden mixing:
  rms(total) = 0.61298E-03    rms(broyden)= 0.61295E-03
  rms(prec ) = 0.10631E-02
  weight for this iteration     100.00

 eigenvalues of (default mixing * dielectric matrix)
  average eigenvalue GAMMA=   1.2728
  5.6858  3.1751  2.5813  1.8027  1.2257  1.2257  1.1810  0.7993  0.7993  0.8087
  0.7833  0.2670  0.4868  0.3773  0.4605  0.4422  0.4149  0.3944

 Free energy of the ion-electron system (eV)
  ---------------------------------------------------
  alpha Z        PSCENC =       729.87559720
  Ewald energy   TEWEN  =    164226.44806453
  -Hartree energ DENC   =   -211608.60620479
  -exchange      EXHF   =         0.00000000
  -V(xc)+E(xc)   XCENC  =      1581.49231517
  PAW double counting   =     46407.95447590   -50249.18765295
  entropy T*S    EENTRO =        -0.00607477
  eigenvalues    EBANDS =     -1233.89665176
  atomic energy  EATOM  =     50037.92390023
  Solvation  Ediel_sol  =         0.00000000
  ---------------------------------------------------
  free energy    TOTEN  =      -108.00223124 eV

  energy without entropy =     -107.99615647  energy(sigma->0) =     -108.00071254


--------------------------------------------------------------------------------------------------------




--------------------------------------- Iteration      1(  31)  ---------------------------------------


    POTLOK:  cpu time    0.1062: real time    0.1078
    SETDIJ:  cpu time    0.0052: real time    0.0052
    EDDIAG:  cpu time    3.4760: real time    3.5068
  RMM-DIIS:  cpu time    8.3899: real time    8.4569
    ORTHCH:  cpu time    0.7568: real time    0.7625
       DOS:  cpu time    0.0010: real time    0.0010
    CHARGE:  cpu time    0.9252: real time    0.9331
    MIXING:  cpu time    0.0072: real time    0.0073
    --------------------------------------------
      LOOP:  cpu time   13.6675: real time   13.7806

 eigenvalue-minimisations  :  2390
 total energy-change (2. order) :-0.4497998E-04  (-0.5995840E-06)
 number of electron     395.9998001 magnetization 
 augmentation part      253.5953458 magnetization 

 DIPCOR: dipole corrections for dipol
 direction  3 min pos   158,
 dipolmoment           0.000000      0.000000      0.571829 electrons x Angstroem
 Tr[quadrupol]     -4134.566917

 energy correction for charged system         0.000000 eV
 dipol+quadrupol energy correction           -0.022412 eV
 added-field ion interaction         11.815675 eV  (added to PSCEN)


 Broyden mixing:
  rms(total) = 0.53698E-03    rms(broyden)= 0.53698E-03
  rms(prec ) = 0.12079E-02
  weight for this iteration     100.00

 eigenvalues of (default mixing * dielectric matrix)
  average eigenvalue GAMMA=   1.3051
  5.7972  3.3875  2.5489  1.9171  1.9171  1.4716  0.7992  0.7992  0.9302  0.8764
  0.8764  0.6789  0.2670  0.4875  0.3773  0.4501  0.4388  0.4139  0.3615

 Free energy of the ion-electron system (eV)
  ---------------------------------------------------
  alpha Z        PSCENC =       729.86585991
  Ewald energy   TEWEN  =    164226.44806453
  -Hartree energ DENC   =   -211608.85103470
  -exchange      EXHF   =         0.00000000
  -V(xc)+E(xc)   XCENC  =      1581.49278429
  PAW double counting   =     46408.04551881   -50249.28467677
  entropy T*S    EENTRO =        -0.00607435
  eigenvalues    EBANDS =     -1233.63661816
  atomic energy  EATOM  =     50037.92390023
  Solvation  Ediel_sol  =         0.00000000
  ---------------------------------------------------
  free energy    TOTEN  =      -108.00227622 eV

  energy without entropy =     -107.99620186  energy(sigma->0) =     -108.00075763


--------------------------------------------------------------------------------------------------------




--------------------------------------- Iteration      1(  32)  ---------------------------------------


    POTLOK:  cpu time    0.1061: real time    0.1071
    SETDIJ:  cpu time    0.0053: real time    0.0054
    EDDIAG:  cpu time    3.4235: real time    3.4539
  RMM-DIIS:  cpu time    7.9673: real time    8.0337
    ORTHCH:  cpu time    0.7525: real time    0.7581
       DOS:  cpu time    0.0010: real time    0.0010
    CHARGE:  cpu time    0.9218: real time    0.9297
    MIXING:  cpu time    0.0096: real time    0.0097
    --------------------------------------------
      LOOP:  cpu time   13.1872: real time   13.2986

 eigenvalue-minimisations  :  2377
 total energy-change (2. order) :-0.4103277E-04  (-0.1045904E-05)
 number of electron     395.9998001 magnetization 
 augmentation part      253.5955139 magnetization 

 DIPCOR: dipole corrections for dipol
 direction  3 min pos   153,
 dipolmoment           0.000000      0.000000      0.570251 electrons x Angstroem
 Tr[quadrupol]     -4134.086642

 energy correction for charged system         0.000000 eV
 dipol+quadrupol energy correction           -0.022288 eV
 added-field ion interaction         32.810379 eV  (added to PSCEN)


 Broyden mixing:
  rms(total) = 0.53059E-03    rms(broyden)= 0.53054E-03
  rms(prec ) = 0.13201E-02
  weight for this iteration     100.00

 eigenvalues of (default mixing * dielectric matrix)
  average eigenvalue GAMMA=   1.3463
  6.0637  3.6600  2.4703  2.4703  1.8328  1.6636  1.1991  0.7994  0.7994  0.9546
  0.8305  0.8305  0.2670  0.5912  0.4866  0.3773  0.4131  0.4459  0.4349  0.3361

 Free energy of the ion-electron system (eV)
  ---------------------------------------------------
  alpha Z        PSCENC =       750.86068669
  Ewald energy   TEWEN  =    164226.44806453
  -Hartree energ DENC   =   -211609.12935388
  -exchange      EXHF   =         0.00000000
  -V(xc)+E(xc)   XCENC  =      1581.49325130
  PAW double counting   =     46408.07087036   -50249.30001639
  entropy T*S    EENTRO =        -0.00610971
  eigenvalues    EBANDS =     -1254.36361037
  atomic energy  EATOM  =     50037.92390023
  Solvation  Ediel_sol  =         0.00000000
  ---------------------------------------------------
  free energy    TOTEN  =      -108.00231725 eV

  energy without entropy =     -107.99620754  energy(sigma->0) =     -108.00078982


--------------------------------------------------------------------------------------------------------




--------------------------------------- Iteration      1(  33)  ---------------------------------------


    POTLOK:  cpu time    0.1049: real time    0.1069
    SETDIJ:  cpu time    0.0054: real time    0.0055
    EDDIAG:  cpu time    3.3978: real time    3.4280
  RMM-DIIS:  cpu time    8.4661: real time    8.5333
    ORTHCH:  cpu time    0.7554: real time    0.7610
       DOS:  cpu time    0.0010: real time    0.0010
    CHARGE:  cpu time    0.9029: real time    0.9103
    MIXING:  cpu time    0.0077: real time    0.0078
    --------------------------------------------
      LOOP:  cpu time   13.6411: real time   13.7538

 eigenvalue-minimisations  :  2388
 total energy-change (2. order) :-0.1653870E-04  (-0.7114029E-06)
 number of electron     395.9998001 magnetization 
 augmentation part      253.5958914 magnetization 

 DIPCOR: dipole corrections for dipol
 direction  3 min pos   151,
 dipolmoment           0.000000      0.000000      0.572042 electrons x Angstroem
 Tr[quadrupol]     -4133.900105

 energy correction for charged system         0.000000 eV
 dipol+quadrupol energy correction           -0.022428 eV
 added-field ion interaction         41.116811 eV  (added to PSCEN)


 Broyden mixing:
  rms(total) = 0.29333E-03    rms(broyden)= 0.29330E-03
  rms(prec ) = 0.49905E-03
  weight for this iteration     100.00

 eigenvalues of (default mixing * dielectric matrix)
  average eigenvalue GAMMA=   1.3564
  6.2027  3.8944  2.6074  2.6074  1.8914  1.8914  1.2459  0.7993  0.7993  0.9138
  0.8689  0.8689  0.6847  0.2670  0.3773  0.4891  0.4745  0.4428  0.4248  0.4110
  0.3232

 Free energy of the ion-electron system (eV)
  ---------------------------------------------------
  alpha Z        PSCENC =       759.16697842
  Ewald energy   TEWEN  =    164226.44806453
  -Hartree energ DENC   =   -211609.36075773
  -exchange      EXHF   =         0.00000000
  -V(xc)+E(xc)   XCENC  =      1581.49240226
  PAW double counting   =     46407.98987930   -50249.21726233
  entropy T*S    EENTRO =        -0.00607799
  eigenvalues    EBANDS =     -1262.43946048
  atomic energy  EATOM  =     50037.92390023
  Solvation  Ediel_sol  =         0.00000000
  ---------------------------------------------------
  free energy    TOTEN  =      -108.00233379 eV

  energy without entropy =     -107.99625580  energy(sigma->0) =     -108.00081429


--------------------------------------------------------------------------------------------------------




--------------------------------------- Iteration      1(  34)  ---------------------------------------


    POTLOK:  cpu time    0.1021: real time    0.1032
    SETDIJ:  cpu time    0.0055: real time    0.0055
    EDDIAG:  cpu time    3.4410: real time    3.4723
  RMM-DIIS:  cpu time    8.6816: real time    8.7517
    ORTHCH:  cpu time    0.7368: real time    0.7422
       DOS:  cpu time    0.0010: real time    0.0010
    CHARGE:  cpu time    0.9157: real time    0.9253
    MIXING:  cpu time    0.0087: real time    0.0088
    --------------------------------------------
      LOOP:  cpu time   13.8923: real time   14.0100

 eigenvalue-minimisations  :  2446
 total energy-change (2. order) :-0.1435049E-04  (-0.2258695E-06)
 number of electron     395.9998001 magnetization 
 augmentation part      253.5952638 magnetization 

 DIPCOR: dipole corrections for dipol
 direction  3 min pos   151,
 dipolmoment           0.000000      0.000000      0.573184 electrons x Angstroem
 Tr[quadrupol]     -4133.906866

 energy correction for charged system         0.000000 eV
 dipol+quadrupol energy correction           -0.022518 eV
 added-field ion interaction         41.063891 eV  (added to PSCEN)


 Broyden mixing:
  rms(total) = 0.43600E-03    rms(broyden)= 0.43599E-03
  rms(prec ) = 0.10825E-02
  weight for this iteration     100.00

 eigenvalues of (default mixing * dielectric matrix)
  average eigenvalue GAMMA=   1.3626
  6.2572  4.2375  2.6509  2.6509  2.0079  2.0079  1.1347  1.1347  0.7993  0.7993
  0.9797  0.8220  0.8220  0.2670  0.5556  0.4861  0.3773  0.4465  0.4337  0.4132
  0.3654  0.3273

 Free energy of the ion-electron system (eV)
  ---------------------------------------------------
  alpha Z        PSCENC =       759.11396967
  Ewald energy   TEWEN  =    164226.44806453
  -Hartree energ DENC   =   -211609.50314766
  -exchange      EXHF   =         0.00000000
  -V(xc)+E(xc)   XCENC  =      1581.49324777
  PAW double counting   =     46408.03790633   -50249.27009384
  entropy T*S    EENTRO =        -0.00607526
  eigenvalues    EBANDS =     -1262.24011990
  atomic energy  EATOM  =     50037.92390023
  Solvation  Ediel_sol  =         0.00000000
  ---------------------------------------------------
  free energy    TOTEN  =      -108.00234814 eV

  energy without entropy =     -107.99627287  energy(sigma->0) =     -108.00082932


--------------------------------------------------------------------------------------------------------




--------------------------------------- Iteration      1(  35)  ---------------------------------------


    POTLOK:  cpu time    0.1061: real time    0.1076
    SETDIJ:  cpu time    0.0055: real time    0.0055
    EDDIAG:  cpu time    3.4119: real time    3.4422
  RMM-DIIS:  cpu time    8.2626: real time    8.3265
    ORTHCH:  cpu time    0.7578: real time    0.7635
       DOS:  cpu time    0.0010: real time    0.0010
    CHARGE:  cpu time    0.8519: real time    0.8591
    MIXING:  cpu time    0.0091: real time    0.0092
    --------------------------------------------
      LOOP:  cpu time   13.4059: real time   13.5147

 eigenvalue-minimisations  :  2299
 total energy-change (2. order) :-0.1969251E-04  (-0.1053056E-06)
 number of electron     395.9998001 magnetization 
 augmentation part      253.5950126 magnetization 

 DIPCOR: dipole corrections for dipol
 direction  3 min pos   151,
 dipolmoment           0.000000      0.000000      0.574033 electrons x Angstroem
 Tr[quadrupol]     -4133.914891

 energy correction for charged system         0.000000 eV
 dipol+quadrupol energy correction           -0.022585 eV
 added-field ion interaction         41.024508 eV  (added to PSCEN)


 Broyden mixing:
  rms(total) = 0.47124E-03    rms(broyden)= 0.47124E-03
  rms(prec ) = 0.92994E-03
  weight for this iteration     100.00

 eigenvalues of (default mixing * dielectric matrix)
  average eigenvalue GAMMA=   1.3836
  6.3024  4.6619  2.7068  2.7068  2.2137  1.9825  1.2182  1.2182  0.7994  0.7994
  1.0588  0.8945  0.7723  0.7723  0.6081  0.2670  0.4868  0.3773  0.4461  0.4353
  0.4132  0.3637  0.3174

 Free energy of the ion-electron system (eV)
  ---------------------------------------------------
  alpha Z        PSCENC =       759.07451939
  Ewald energy   TEWEN  =    164226.44806453
  -Hartree energ DENC   =   -211609.62650881
  -exchange      EXHF   =         0.00000000
  -V(xc)+E(xc)   XCENC  =      1581.49400744
  PAW double counting   =     46408.10868485   -50249.34259029
  entropy T*S    EENTRO =        -0.00608610
  eigenvalues    EBANDS =     -1262.07635907
  atomic energy  EATOM  =     50037.92390023
  Solvation  Ediel_sol  =         0.00000000
  ---------------------------------------------------
  free energy    TOTEN  =      -108.00236783 eV

  energy without entropy =     -107.99628173  energy(sigma->0) =     -108.00084631


--------------------------------------------------------------------------------------------------------




--------------------------------------- Iteration      1(  36)  ---------------------------------------


    POTLOK:  cpu time    0.1040: real time    0.1050
    SETDIJ:  cpu time    0.0059: real time    0.0059
    EDDIAG:  cpu time    3.4471: real time    3.4777
  RMM-DIIS:  cpu time    8.1458: real time    8.2106
    ORTHCH:  cpu time    0.7524: real time    0.7578
       DOS:  cpu time    0.0010: real time    0.0010
    CHARGE:  cpu time    0.7911: real time    0.7981
    MIXING:  cpu time    0.0070: real time    0.0070
    --------------------------------------------
      LOOP:  cpu time   13.2542: real time   13.3632

 eigenvalue-minimisations  :  2253
 total energy-change (2. order) :-0.2534807E-04  (-0.1396908E-06)
 number of electron     395.9998001 magnetization 
 augmentation part      253.5955611 magnetization 

 DIPCOR: dipole corrections for dipol
 direction  3 min pos   151,
 dipolmoment           0.000000      0.000000      0.575457 electrons x Angstroem
 Tr[quadrupol]     -4133.922237

 energy correction for charged system         0.000000 eV
 dipol+quadrupol energy correction           -0.022697 eV
 added-field ion interaction         40.958499 eV  (added to PSCEN)


 Broyden mixing:
  rms(total) = 0.35247E-03    rms(broyden)= 0.35247E-03
  rms(prec ) = 0.90243E-03
  weight for this iteration     100.00

 eigenvalues of (default mixing * dielectric matrix)
  average eigenvalue GAMMA=   1.4098
  6.2644  5.2919  2.9472  2.9472  2.3315  1.6715  1.4093  1.4093  1.1772  0.7994
  0.7994  0.8975  0.8207  0.8207  0.6507  0.2670  0.5129  0.4862  0.3773  0.4450
  0.4128  0.4329  0.3476  0.3149

 Free energy of the ion-electron system (eV)
  ---------------------------------------------------
  alpha Z        PSCENC =       759.00839822
  Ewald energy   TEWEN  =    164226.44806453
  -Hartree energ DENC   =   -211609.68220898
  -exchange      EXHF   =         0.00000000
  -V(xc)+E(xc)   XCENC  =      1581.49311897
  PAW double counting   =     46408.04062825   -50249.27217634
  entropy T*S    EENTRO =        -0.00608704
  eigenvalues    EBANDS =     -1261.95603103
  atomic energy  EATOM  =     50037.92390023
  Solvation  Ediel_sol  =         0.00000000
  ---------------------------------------------------
  free energy    TOTEN  =      -108.00239318 eV

  energy without entropy =     -107.99630614  energy(sigma->0) =     -108.00087142


--------------------------------------------------------------------------------------------------------




--------------------------------------- Iteration      1(  37)  ---------------------------------------


    POTLOK:  cpu time    0.0785: real time    0.0792
    SETDIJ:  cpu time    0.0052: real time    0.0052
    EDDIAG:  cpu time    3.2148: real time    3.2448
  RMM-DIIS:  cpu time    6.6373: real time    6.6851
    ORTHCH:  cpu time    0.7557: real time    0.7613
       DOS:  cpu time    0.0011: real time    0.0011
    CHARGE:  cpu time    0.9225: real time    0.9306
    MIXING:  cpu time    0.0108: real time    0.0109
    --------------------------------------------
      LOOP:  cpu time   11.6259: real time   11.7182

 eigenvalue-minimisations  :  1559
 total energy-change (2. order) :-0.1173071E-04  (-0.3884259E-07)
 number of electron     395.9998001 magnetization 
 augmentation part      253.5953594 magnetization 

 DIPCOR: dipole corrections for dipol
 direction  3 min pos   152,
 dipolmoment           0.000000      0.000000      0.576031 electrons x Angstroem
 Tr[quadrupol]     -4134.025817

 energy correction for charged system         0.000000 eV
 dipol+quadrupol energy correction           -0.022742 eV
 added-field ion interaction         36.764417 eV  (added to PSCEN)


 Broyden mixing:
  rms(total) = 0.30787E-03    rms(broyden)= 0.30787E-03
  rms(prec ) = 0.78385E-03
  weight for this iteration     100.00

 eigenvalues of (default mixing * dielectric matrix)
  average eigenvalue GAMMA=   1.4799
  6.4572  6.4572  3.1466  3.1466  2.2664  1.8020  1.8020  1.5929  1.1823  0.7993
  0.7993  0.9285  0.9285  0.8124  0.8124  0.2670  0.5716  0.4866  0.3773  0.4462
  0.4346  0.4136  0.4036  0.3486  0.3140

 Free energy of the ion-electron system (eV)
  ---------------------------------------------------
  alpha Z        PSCENC =       754.81427075
  Ewald energy   TEWEN  =    164226.44806453
  -Hartree energ DENC   =   -211609.71854349
  -exchange      EXHF   =         0.00000000
  -V(xc)+E(xc)   XCENC  =      1581.49333497
  PAW double counting   =     46408.01325574   -50249.24595349
  entropy T*S    EENTRO =        -0.00609422
  eigenvalues    EBANDS =     -1257.72463994
  atomic energy  EATOM  =     50037.92390023
  Solvation  Ediel_sol  =         0.00000000
  ---------------------------------------------------
  free energy    TOTEN  =      -108.00240491 eV

  energy without entropy =     -107.99631069  energy(sigma->0) =     -108.00088136


--------------------------------------------------------------------------------------------------------




--------------------------------------- Iteration      1(  38)  ---------------------------------------


    POTLOK:  cpu time    0.1042: real time    0.1057
    SETDIJ:  cpu time    0.0052: real time    0.0052
    EDDIAG:  cpu time    3.4843: real time    3.5151
  RMM-DIIS:  cpu time    6.7663: real time    6.8191
    ORTHCH:  cpu time    0.7562: real time    0.7620
       DOS:  cpu time    0.0009: real time    0.0009
    --------------------------------------------
      LOOP:  cpu time   11.1172: real time   11.2081

 eigenvalue-minimisations  :  1385
 total energy-change (2. order) :-0.8146169E-05  (-0.3030561E-07)
 number of electron     395.9998001 magnetization 
 augmentation part      253.5953594 magnetization 

 DIPCOR: dipole corrections for dipol
 direction  3 min pos   153,
 dipolmoment           0.000000      0.000000      0.576302 electrons x Angstroem
 Tr[quadrupol]     -4134.128935

 energy correction for charged system         0.000000 eV
 dipol+quadrupol energy correction           -0.022764 eV
 added-field ion interaction         32.586968 eV  (added to PSCEN)


 Free energy of the ion-electron system (eV)
  ---------------------------------------------------
  alpha Z        PSCENC =       750.63680037
  Ewald energy   TEWEN  =    164226.44806453
  -Hartree energ DENC   =   -211609.74389174
  -exchange      EXHF   =         0.00000000
  -V(xc)+E(xc)   XCENC  =      1581.49355703
  PAW double counting   =     46407.99862764   -50249.23177621
  entropy T*S    EENTRO =        -0.00610343
  eigenvalues    EBANDS =     -1253.52159148
  atomic energy  EATOM  =     50037.92390023
  Solvation  Ediel_sol  =         0.00000000
  ---------------------------------------------------
  free energy    TOTEN  =      -108.00241306 eV

  energy without entropy =     -107.99630963  energy(sigma->0) =     -108.00088720


--------------------------------------------------------------------------------------------------------




 average (electrostatic) potential at core
  the test charge radii are     0.9430
  (the norm of the test charge is              1.0000)
       1 -71.4880       2 -71.4883       3 -71.4888       4 -71.4872       5 -71.4865
       6 -71.4875       7 -71.4878       8 -71.4882       9 -71.4888      10 -71.8504
      11 -71.8594      12 -71.8483      13 -71.8703      14 -71.8875      15 -71.8765
      16 -71.8702      17 -71.8873      18 -71.8760      19 -71.8480      20 -71.8415
      21 -71.8419      22 -71.8334      23 -71.8283      24 -71.8340      25 -71.8476
      26 -71.8417      27 -71.8431      28 -71.4886      29 -71.4943      30 -71.4887
      31 -71.4625      32 -71.4353      33 -71.4372      34 -71.4644      35 -71.4322
      36 -71.4419
 
 
 
 E-fermi :  -0.4621     XC(G=0):  -4.9881     alpha+bet : -4.2419


 k-point     1 :       0.1250    0.1250    0.0000
  band No.  band energies     occupation 
      1      -8.8743      2.00000
      2      -7.3278      2.00000
      3      -7.0499      2.00000
      4      -7.0437      2.00000
      5      -6.0658      2.00000
      6      -6.0596      2.00000
      7      -5.8130      2.00000
      8      -5.8062      2.00000
      9      -5.6125      2.00000
     10      -5.4337      2.00000
     11      -5.3001      2.00000
     12      -5.2935      2.00000
     13      -5.0814      2.00000
     14      -5.0792      2.00000
     15      -4.9808      2.00000
     16      -4.8994      2.00000
     17      -4.6814      2.00000
     18      -4.6552      2.00000
     19      -4.6455      2.00000
     20      -4.6253      2.00000
     21      -4.6181      2.00000
     22      -4.5716      2.00000
     23      -4.5017      2.00000
     24      -4.4427      2.00000
     25      -4.4413      2.00000
     26      -4.3798      2.00000
     27      -4.3663      2.00000
     28      -4.3622      2.00000
     29      -4.3272      2.00000
     30      -4.3221      2.00000
     31      -4.3159      2.00000
     32      -4.3053      2.00000
     33      -4.2983      2.00000
     34      -4.2309      2.00000
     35      -4.2252      2.00000
     36      -4.2220      2.00000
     37      -4.2159      2.00000
     38      -4.2069      2.00000
     39      -4.1271      2.00000
     40      -4.1232      2.00000
     41      -4.0749      2.00000
     42      -4.0590      2.00000
     43      -4.0345      2.00000
     44      -4.0280      2.00000
     45      -3.9407      2.00000
     46      -3.8302      2.00000
     47      -3.8268      2.00000
     48      -3.8161      2.00000
     49      -3.8102      2.00000
     50      -3.7777      2.00000
     51      -3.7506      2.00000
     52      -3.7300      2.00000
     53      -3.7234      2.00000
     54      -3.7213      2.00000
     55      -3.6787      2.00000
     56      -3.6120      2.00000
     57      -3.6104      2.00000
     58      -3.5910      2.00000
     59      -3.5514      2.00000
     60      -3.5476      2.00000
     61      -3.5426      2.00000
     62      -3.5193      2.00000
     63      -3.4986      2.00000
     64      -3.4928      2.00000
     65      -3.4895      2.00000
     66      -3.4749      2.00000
     67      -3.4671      2.00000
     68      -3.4620      2.00000
     69      -3.4108      2.00000
     70      -3.4081      2.00000
     71      -3.4027      2.00000
     72      -3.3063      2.00000
     73      -3.2968      2.00000
     74      -3.2859      2.00000
     75      -3.2772      2.00000
     76      -3.2501      2.00000
     77      -3.2370      2.00000
     78      -3.2318      2.00000
     79      -3.1970      2.00000
     80      -3.1920      2.00000
     81      -3.1831      2.00000
     82      -3.1752      2.00000
     83      -3.1697      2.00000
     84      -3.1647      2.00000
     85      -3.1478      2.00000
     86      -3.1447      2.00000
     87      -3.1396      2.00000
     88      -3.1349      2.00000
     89      -3.1315      2.00000
     90      -3.1210      2.00000
     91      -3.1121      2.00000
     92      -3.1030      2.00000
     93      -3.0946      2.00000
     94      -3.0813      2.00000
     95      -3.0651      2.00000
     96      -3.0611      2.00000
     97      -3.0156      2.00000
     98      -3.0116      2.00000
     99      -2.9652      2.00000
    100      -2.9141      2.00000
    101      -2.9116      2.00000
    102      -2.8794      2.00000
    103      -2.8729      2.00000
    104      -2.7683      2.00000
    105      -2.7580      2.00000
    106      -2.7518      2.00000
    107      -2.7489      2.00000
    108      -2.7192      2.00000
    109      -2.7130      2.00000
    110      -2.7013      2.00000
    111      -2.6962      2.00000
    112      -2.6818      2.00000
    113      -2.6569      2.00000
    114      -2.6551      2.00000
    115      -2.6500      2.00000
    116      -2.6454      2.00000
    117      -2.6214      2.00000
    118      -2.6179      2.00000
    119      -2.6148      2.00000
    120      -2.6109      2.00000
    121      -2.5975      2.00000
    122      -2.5928      2.00000
    123      -2.5714      2.00000
    124      -2.5509      2.00000
    125      -2.5454      2.00000
    126      -2.5423      2.00000
    127      -2.5387      2.00000
    128      -2.5248      2.00000
    129      -2.5235      2.00000
    130      -2.5190      2.00000
    131      -2.5156      2.00000
    132      -2.5114      2.00000
    133      -2.5072      2.00000
    134      -2.5053      2.00000
    135      -2.4899      2.00000
    136      -2.4870      2.00000
    137      -2.4440      2.00000
    138      -2.4271      2.00000
    139      -2.3944      2.00000
    140      -2.3689      2.00000
    141      -2.3606      2.00000
    142      -2.3550      2.00000
    143      -2.3373      2.00000
    144      -2.3254      2.00000
    145      -2.3216      2.00000
    146      -2.3215      2.00000
    147      -2.3189      2.00000
    148      -2.3163      2.00000
    149      -2.3136      2.00000
    150      -2.3025      2.00000
    151      -2.2761      2.00000
    152      -2.2743      2.00000
    153      -2.2268      2.00000
    154      -2.1955      2.00000
    155      -2.1935      2.00000
    156      -2.1846      2.00000
    157      -2.1829      2.00000
    158      -2.1733      2.00000
    159      -2.1697      2.00000
    160      -2.1594      2.00000
    161      -2.1527      2.00000
    162      -2.1508      2.00000
    163      -2.1491      2.00000
    164      -2.1476      2.00000
    165      -2.1461      2.00000
    166      -2.1376      2.00000
    167      -2.1351      2.00000
    168      -2.1330      2.00000
    169      -2.1087      2.00000
    170      -2.1069      2.00000
    171      -2.0710      2.00000
    172      -2.0683      2.00000
    173      -2.0667      2.00000
    174      -2.0618      2.00000
    175      -2.0589      2.00000
    176      -2.0218      2.00000
    177      -1.9869      2.00000
    178      -1.9855      2.00000
    179      -1.9831      2.00000
    180      -1.9796      2.00000
    181      -1.9753      2.00000
    182      -1.9702      2.00000
    183      -1.9674      2.00000
    184      -1.9534      2.00000
    185      -1.9331      2.00000
    186      -1.9263      2.00000
    187      -1.9236      2.00000
    188      -1.9224      2.00000
    189      -1.9131      2.00000
    190      -1.9093      2.00000
    191      -1.9036      2.00000
    192      -1.8604      2.00000
    193      -1.4405      2.00000
    194      -1.4371      2.00000
    195      -1.1815      1.99998
    196      -1.1801      1.99998
    197      -1.1021      1.99978
    198      -0.8246      1.99374
    199      -0.7161      2.06226
    200      -0.4885      1.27594
    201      -0.4844      1.23448
    202      -0.2155     -0.06936
    203      -0.2096     -0.06374
    204       0.6456      0.00000
    205       0.7239      0.00000
    206       0.8319      0.00000
    207       1.2133      0.00000
    208       1.2194      0.00000
    209       1.6554      0.00000
    210       1.6571      0.00000
    211       1.7556      0.00000
    212       1.7673      0.00000
    213       2.9715      0.00000
    214       3.0350      0.00000
    215       3.0391      0.00000
    216       3.1714      0.00000
    217       3.2089      0.00000
    218       3.3694      0.00000
    219       3.3751      0.00000
    220       3.5152      0.00000
    221       3.5572      0.00000
    222       3.5626      0.00000
    223       3.6887      0.00000
    224       3.6915      0.00000
    225       4.1861      0.00000
    226       4.4087      0.00000
    227       4.4101      0.00000
    228       4.7074      0.00000
    229       4.7102      0.00000
    230       4.8525      0.00000
    231       5.0567      0.00000
    232       5.0615      0.00000
    233       5.1482      0.00000
    234       5.1499      0.00000
    235       5.2076      0.00000
    236       5.2105      0.00000
    237       5.3582      0.00000
    238       5.3782      0.00000
    239       5.4729      0.00000
    240       5.5656      0.00000

 k-point     2 :       0.3750    0.1250    0.0000
  band No.  band energies     occupation 
      1      -8.5498      2.00000
      2      -7.9216      2.00000
      3      -7.0281      2.00000
      4      -6.7614      2.00000
      5      -6.4761      2.00000
      6      -6.2407      2.00000
      7      -5.8231      2.00000
      8      -5.5559      2.00000
      9      -5.4318      2.00000
     10      -5.2890      2.00000
     11      -5.1943      2.00000
     12      -5.1234      2.00000
     13      -5.0965      2.00000
     14      -5.0861      2.00000
     15      -4.8435      2.00000
     16      -4.8162      2.00000
     17      -4.8101      2.00000
     18      -4.7533      2.00000
     19      -4.7458      2.00000
     20      -4.7067      2.00000
     21      -4.5935      2.00000
     22      -4.5493      2.00000
     23      -4.5355      2.00000
     24      -4.5047      2.00000
     25      -4.4629      2.00000
     26      -4.4396      2.00000
     27      -4.4200      2.00000
     28      -4.4076      2.00000
     29      -4.4016      2.00000
     30      -4.3729      2.00000
     31      -4.3489      2.00000
     32      -4.3385      2.00000
     33      -4.2579      2.00000
     34      -4.2483      2.00000
     35      -4.1707      2.00000
     36      -4.1594      2.00000
     37      -4.1356      2.00000
     38      -4.1318      2.00000
     39      -4.0712      2.00000
     40      -4.0649      2.00000
     41      -4.0447      2.00000
     42      -4.0208      2.00000
     43      -4.0029      2.00000
     44      -3.9465      2.00000
     45      -3.9417      2.00000
     46      -3.9324      2.00000
     47      -3.8811      2.00000
     48      -3.8410      2.00000
     49      -3.8359      2.00000
     50      -3.8118      2.00000
     51      -3.8077      2.00000
     52      -3.7489      2.00000
     53      -3.7123      2.00000
     54      -3.6899      2.00000
     55      -3.6772      2.00000
     56      -3.6633      2.00000
     57      -3.6480      2.00000
     58      -3.6349      2.00000
     59      -3.5992      2.00000
     60      -3.5895      2.00000
     61      -3.5695      2.00000
     62      -3.5651      2.00000
     63      -3.5512      2.00000
     64      -3.5504      2.00000
     65      -3.5281      2.00000
     66      -3.5217      2.00000
     67      -3.5025      2.00000
     68      -3.4369      2.00000
     69      -3.3964      2.00000
     70      -3.3699      2.00000
     71      -3.3529      2.00000
     72      -3.3503      2.00000
     73      -3.3351      2.00000
     74      -3.3189      2.00000
     75      -3.2740      2.00000
     76      -3.2503      2.00000
     77      -3.2279      2.00000
     78      -3.2249      2.00000
     79      -3.2150      2.00000
     80      -3.2097      2.00000
     81      -3.2030      2.00000
     82      -3.1975      2.00000
     83      -3.1912      2.00000
     84      -3.1803      2.00000
     85      -3.1713      2.00000
     86      -3.1541      2.00000
     87      -3.1447      2.00000
     88      -3.1389      2.00000
     89      -3.1166      2.00000
     90      -3.1100      2.00000
     91      -3.1028      2.00000
     92      -3.0908      2.00000
     93      -3.0754      2.00000
     94      -3.0421      2.00000
     95      -3.0336      2.00000
     96      -3.0047      2.00000
     97      -2.9842      2.00000
     98      -2.9768      2.00000
     99      -2.9205      2.00000
    100      -2.9118      2.00000
    101      -2.8719      2.00000
    102      -2.8681      2.00000
    103      -2.8568      2.00000
    104      -2.8545      2.00000
    105      -2.8468      2.00000
    106      -2.8453      2.00000
    107      -2.8257      2.00000
    108      -2.8194      2.00000
    109      -2.8102      2.00000
    110      -2.7894      2.00000
    111      -2.7744      2.00000
    112      -2.7623      2.00000
    113      -2.7382      2.00000
    114      -2.7336      2.00000
    115      -2.7123      2.00000
    116      -2.7061      2.00000
    117      -2.7028      2.00000
    118      -2.6993      2.00000
    119      -2.6807      2.00000
    120      -2.6683      2.00000
    121      -2.6533      2.00000
    122      -2.6489      2.00000
    123      -2.6243      2.00000
    124      -2.6197      2.00000
    125      -2.6102      2.00000
    126      -2.5536      2.00000
    127      -2.5278      2.00000
    128      -2.5056      2.00000
    129      -2.4998      2.00000
    130      -2.4963      2.00000
    131      -2.4786      2.00000
    132      -2.4727      2.00000
    133      -2.4528      2.00000
    134      -2.4411      2.00000
    135      -2.4366      2.00000
    136      -2.4342      2.00000
    137      -2.4252      2.00000
    138      -2.4185      2.00000
    139      -2.4017      2.00000
    140      -2.3926      2.00000
    141      -2.3858      2.00000
    142      -2.3850      2.00000
    143      -2.3746      2.00000
    144      -2.3713      2.00000
    145      -2.3550      2.00000
    146      -2.3460      2.00000
    147      -2.3274      2.00000
    148      -2.3209      2.00000
    149      -2.2905      2.00000
    150      -2.2856      2.00000
    151      -2.2794      2.00000
    152      -2.2485      2.00000
    153      -2.2309      2.00000
    154      -2.2257      2.00000
    155      -2.2163      2.00000
    156      -2.2125      2.00000
    157      -2.1785      2.00000
    158      -2.1730      2.00000
    159      -2.1538      2.00000
    160      -2.1488      2.00000
    161      -2.1472      2.00000
    162      -2.1390      2.00000
    163      -2.1315      2.00000
    164      -2.1282      2.00000
    165      -2.1228      2.00000
    166      -2.1098      2.00000
    167      -2.0902      2.00000
    168      -2.0889      2.00000
    169      -2.0872      2.00000
    170      -2.0859      2.00000
    171      -2.0757      2.00000
    172      -2.0661      2.00000
    173      -2.0625      2.00000
    174      -2.0569      2.00000
    175      -2.0424      2.00000
    176      -2.0225      2.00000
    177      -2.0032      2.00000
    178      -1.9957      2.00000
    179      -1.9824      2.00000
    180      -1.9787      2.00000
    181      -1.9695      2.00000
    182      -1.9387      2.00000
    183      -1.9295      2.00000
    184      -1.9257      2.00000
    185      -1.9106      2.00000
    186      -1.8873      2.00000
    187      -1.8339      2.00000
    188      -1.7985      2.00000
    189      -1.7692      2.00000
    190      -1.7124      2.00000
    191      -1.6722      2.00000
    192      -1.6058      2.00000
    193      -1.5361      2.00000
    194      -1.1834      1.99998
    195      -1.0928      1.99972
    196      -0.9593      1.99568
    197      -0.7877      2.00622
    198      -0.3609      0.11607
    199      -0.1814     -0.03737
    200      -0.1716     -0.02912
    201      -0.0927      0.00747
    202       0.0092      0.00616
    203       0.1518      0.00043
    204       0.3498      0.00000
    205       0.5831      0.00000
    206       0.7821      0.00000
    207       1.1587      0.00000
    208       1.3013      0.00000
    209       1.5737      0.00000
    210       1.5856      0.00000
    211       2.0734      0.00000
    212       2.1675      0.00000
    213       2.2168      0.00000
    214       2.2618      0.00000
    215       2.2731      0.00000
    216       2.5990      0.00000
    217       2.7181      0.00000
    218       2.8000      0.00000
    219       3.2497      0.00000
    220       3.2567      0.00000
    221       3.5299      0.00000
    222       3.6613      0.00000
    223       3.6934      0.00000
    224       3.7443      0.00000
    225       3.9016      0.00000
    226       3.9817      0.00000
    227       4.1684      0.00000
    228       4.4520      0.00000
    229       4.4936      0.00000
    230       4.5323      0.00000
    231       4.5456      0.00000
    232       4.8479      0.00000
    233       4.9992      0.00000
    234       5.0682      0.00000
    235       5.1047      0.00000
    236       5.1812      0.00000
    237       5.3420      0.00000
    238       5.4572      0.00000
    239       5.4718      0.00000
    240       5.8407      0.00000

 k-point     3 :      -0.3750    0.1250    0.0000
  band No.  band energies     occupation 
      1      -8.5498      2.00000
      2      -7.9216      2.00000
      3      -7.0281      2.00000
      4      -6.7615      2.00000
      5      -6.4761      2.00000
      6      -6.2406      2.00000
      7      -5.8231      2.00000
      8      -5.5559      2.00000
      9      -5.4319      2.00000
     10      -5.2890      2.00000
     11      -5.1943      2.00000
     12      -5.1233      2.00000
     13      -5.0968      2.00000
     14      -5.0858      2.00000
     15      -4.8435      2.00000
     16      -4.8161      2.00000
     17      -4.8102      2.00000
     18      -4.7532      2.00000
     19      -4.7455      2.00000
     20      -4.7072      2.00000
     21      -4.5935      2.00000
     22      -4.5492      2.00000
     23      -4.5355      2.00000
     24      -4.5047      2.00000
     25      -4.4629      2.00000
     26      -4.4398      2.00000
     27      -4.4199      2.00000
     28      -4.4077      2.00000
     29      -4.4013      2.00000
     30      -4.3732      2.00000
     31      -4.3491      2.00000
     32      -4.3382      2.00000
     33      -4.2584      2.00000
     34      -4.2478      2.00000
     35      -4.1708      2.00000
     36      -4.1596      2.00000
     37      -4.1355      2.00000
     38      -4.1316      2.00000
     39      -4.0717      2.00000
     40      -4.0652      2.00000
     41      -4.0446      2.00000
     42      -4.0201      2.00000
     43      -4.0031      2.00000
     44      -3.9464      2.00000
     45      -3.9416      2.00000
     46      -3.9324      2.00000
     47      -3.8812      2.00000
     48      -3.8412      2.00000
     49      -3.8360      2.00000
     50      -3.8115      2.00000
     51      -3.8076      2.00000
     52      -3.7492      2.00000
     53      -3.7128      2.00000
     54      -3.6897      2.00000
     55      -3.6771      2.00000
     56      -3.6633      2.00000
     57      -3.6477      2.00000
     58      -3.6347      2.00000
     59      -3.5994      2.00000
     60      -3.5896      2.00000
     61      -3.5693      2.00000
     62      -3.5645      2.00000
     63      -3.5516      2.00000
     64      -3.5506      2.00000
     65      -3.5280      2.00000
     66      -3.5218      2.00000
     67      -3.5022      2.00000
     68      -3.4366      2.00000
     69      -3.3964      2.00000
     70      -3.3697      2.00000
     71      -3.3530      2.00000
     72      -3.3504      2.00000
     73      -3.3352      2.00000
     74      -3.3187      2.00000
     75      -3.2743      2.00000
     76      -3.2502      2.00000
     77      -3.2284      2.00000
     78      -3.2247      2.00000
     79      -3.2138      2.00000
     80      -3.2101      2.00000
     81      -3.2039      2.00000
     82      -3.1982      2.00000
     83      -3.1924      2.00000
     84      -3.1791      2.00000
     85      -3.1707      2.00000
     86      -3.1536      2.00000
     87      -3.1443      2.00000
     88      -3.1393      2.00000
     89      -3.1172      2.00000
     90      -3.1096      2.00000
     91      -3.1023      2.00000
     92      -3.0910      2.00000
     93      -3.0757      2.00000
     94      -3.0424      2.00000
     95      -3.0338      2.00000
     96      -3.0046      2.00000
     97      -2.9843      2.00000
     98      -2.9764      2.00000
     99      -2.9207      2.00000
    100      -2.9119      2.00000
    101      -2.8723      2.00000
    102      -2.8680      2.00000
    103      -2.8556      2.00000
    104      -2.8545      2.00000
    105      -2.8467      2.00000
    106      -2.8462      2.00000
    107      -2.8262      2.00000
    108      -2.8179      2.00000
    109      -2.8100      2.00000
    110      -2.7898      2.00000
    111      -2.7752      2.00000
    112      -2.7622      2.00000
    113      -2.7388      2.00000
    114      -2.7338      2.00000
    115      -2.7121      2.00000
    116      -2.7063      2.00000
    117      -2.7031      2.00000
    118      -2.6984      2.00000
    119      -2.6812      2.00000
    120      -2.6683      2.00000
    121      -2.6535      2.00000
    122      -2.6481      2.00000
    123      -2.6246      2.00000
    124      -2.6193      2.00000
    125      -2.6102      2.00000
    126      -2.5537      2.00000
    127      -2.5279      2.00000
    128      -2.5057      2.00000
    129      -2.4997      2.00000
    130      -2.4964      2.00000
    131      -2.4781      2.00000
    132      -2.4718      2.00000
    133      -2.4536      2.00000
    134      -2.4402      2.00000
    135      -2.4361      2.00000
    136      -2.4338      2.00000
    137      -2.4254      2.00000
    138      -2.4194      2.00000
    139      -2.4030      2.00000
    140      -2.3929      2.00000
    141      -2.3853      2.00000
    142      -2.3841      2.00000
    143      -2.3753      2.00000
    144      -2.3718      2.00000
    145      -2.3551      2.00000
    146      -2.3455      2.00000
    147      -2.3274      2.00000
    148      -2.3212      2.00000
    149      -2.2900      2.00000
    150      -2.2851      2.00000
    151      -2.2795      2.00000
    152      -2.2488      2.00000
    153      -2.2313      2.00000
    154      -2.2256      2.00000
    155      -2.2161      2.00000
    156      -2.2124      2.00000
    157      -2.1788      2.00000
    158      -2.1729      2.00000
    159      -2.1537      2.00000
    160      -2.1488      2.00000
    161      -2.1476      2.00000
    162      -2.1390      2.00000
    163      -2.1316      2.00000
    164      -2.1281      2.00000
    165      -2.1225      2.00000
    166      -2.1103      2.00000
    167      -2.0899      2.00000
    168      -2.0890      2.00000
    169      -2.0870      2.00000
    170      -2.0858      2.00000
    171      -2.0757      2.00000
    172      -2.0660      2.00000
    173      -2.0623      2.00000
    174      -2.0573      2.00000
    175      -2.0422      2.00000
    176      -2.0224      2.00000
    177      -2.0034      2.00000
    178      -1.9960      2.00000
    179      -1.9821      2.00000
    180      -1.9786      2.00000
    181      -1.9698      2.00000
    182      -1.9388      2.00000
    183      -1.9292      2.00000
    184      -1.9260      2.00000
    185      -1.9109      2.00000
    186      -1.8862      2.00000
    187      -1.8344      2.00000
    188      -1.7984      2.00000
    189      -1.7691      2.00000
    190      -1.7122      2.00000
    191      -1.6722      2.00000
    192      -1.6057      2.00000
    193      -1.5361      2.00000
    194      -1.1834      1.99998
    195      -1.0928      1.99972
    196      -0.9593      1.99568
    197      -0.7877      2.00619
    198      -0.3609      0.11589
    199      -0.1809     -0.03692
    200      -0.1718     -0.02931
    201      -0.0930      0.00742
    202       0.0092      0.00616
    203       0.1518      0.00043
    204       0.3497      0.00000
    205       0.5831      0.00000
    206       0.7821      0.00000
    207       1.1582      0.00000
    208       1.3014      0.00000
    209       1.5742      0.00000
    210       1.5856      0.00000
    211       2.0734      0.00000
    212       2.1677      0.00000
    213       2.2169      0.00000
    214       2.2618      0.00000
    215       2.2726      0.00000
    216       2.6009      0.00000
    217       2.7155      0.00000
    218       2.8001      0.00000
    219       3.2491      0.00000
    220       3.2575      0.00000
    221       3.5299      0.00000
    222       3.6614      0.00000
    223       3.6936      0.00000
    224       3.7441      0.00000
    225       3.9023      0.00000
    226       3.9815      0.00000
    227       4.1684      0.00000
    228       4.4520      0.00000
    229       4.4936      0.00000
    230       4.5319      0.00000
    231       4.5455      0.00000
    232       4.8474      0.00000
    233       4.9991      0.00000
    234       5.0690      0.00000
    235       5.1047      0.00000
    236       5.1813      0.00000
    237       5.3424      0.00000
    238       5.4575      0.00000
    239       5.4810      0.00000
    240       5.9583      0.00000

 k-point     4 :      -0.1250    0.1250    0.0000
  band No.  band energies     occupation 
      1      -8.8743      2.00000
      2      -7.3278      2.00000
      3      -7.0493      2.00000
      4      -7.0444      2.00000
      5      -6.0653      2.00000
      6      -6.0601      2.00000
      7      -5.8140      2.00000
      8      -5.8053      2.00000
      9      -5.6124      2.00000
     10      -5.4337      2.00000
     11      -5.3007      2.00000
     12      -5.2928      2.00000
     13      -5.0811      2.00000
     14      -5.0796      2.00000
     15      -4.9808      2.00000
     16      -4.8994      2.00000
     17      -4.6814      2.00000
     18      -4.6552      2.00000
     19      -4.6455      2.00000
     20      -4.6252      2.00000
     21      -4.6182      2.00000
     22      -4.5717      2.00000
     23      -4.5017      2.00000
     24      -4.4429      2.00000
     25      -4.4412      2.00000
     26      -4.3798      2.00000
     27      -4.3661      2.00000
     28      -4.3625      2.00000
     29      -4.3266      2.00000
     30      -4.3214      2.00000
     31      -4.3159      2.00000
     32      -4.3054      2.00000
     33      -4.2990      2.00000
     34      -4.2316      2.00000
     35      -4.2254      2.00000
     36      -4.2217      2.00000
     37      -4.2156      2.00000
     38      -4.2070      2.00000
     39      -4.1271      2.00000
     40      -4.1234      2.00000
     41      -4.0746      2.00000
     42      -4.0591      2.00000
     43      -4.0345      2.00000
     44      -4.0281      2.00000
     45      -3.9406      2.00000
     46      -3.8298      2.00000
     47      -3.8273      2.00000
     48      -3.8165      2.00000
     49      -3.8097      2.00000
     50      -3.7775      2.00000
     51      -3.7503      2.00000
     52      -3.7307      2.00000
     53      -3.7234      2.00000
     54      -3.7213      2.00000
     55      -3.6787      2.00000
     56      -3.6123      2.00000
     57      -3.6099      2.00000
     58      -3.5909      2.00000
     59      -3.5518      2.00000
     60      -3.5472      2.00000
     61      -3.5434      2.00000
     62      -3.5188      2.00000
     63      -3.4988      2.00000
     64      -3.4927      2.00000
     65      -3.4898      2.00000
     66      -3.4747      2.00000
     67      -3.4669      2.00000
     68      -3.4618      2.00000
     69      -3.4108      2.00000
     70      -3.4081      2.00000
     71      -3.4026      2.00000
     72      -3.3062      2.00000
     73      -3.2968      2.00000
     74      -3.2848      2.00000
     75      -3.2784      2.00000
     76      -3.2503      2.00000
     77      -3.2374      2.00000
     78      -3.2314      2.00000
     79      -3.1973      2.00000
     80      -3.1908      2.00000
     81      -3.1846      2.00000
     82      -3.1738      2.00000
     83      -3.1707      2.00000
     84      -3.1643      2.00000
     85      -3.1481      2.00000
     86      -3.1443      2.00000
     87      -3.1388      2.00000
     88      -3.1352      2.00000
     89      -3.1325      2.00000
     90      -3.1207      2.00000
     91      -3.1122      2.00000
     92      -3.1035      2.00000
     93      -3.0941      2.00000
     94      -3.0808      2.00000
     95      -3.0650      2.00000
     96      -3.0616      2.00000
     97      -3.0156      2.00000
     98      -3.0120      2.00000
     99      -2.9656      2.00000
    100      -2.9142      2.00000
    101      -2.9113      2.00000
    102      -2.8798      2.00000
    103      -2.8722      2.00000
    104      -2.7686      2.00000
    105      -2.7583      2.00000
    106      -2.7505      2.00000
    107      -2.7494      2.00000
    108      -2.7192      2.00000
    109      -2.7125      2.00000
    110      -2.7012      2.00000
    111      -2.6953      2.00000
    112      -2.6822      2.00000
    113      -2.6569      2.00000
    114      -2.6555      2.00000
    115      -2.6504      2.00000
    116      -2.6456      2.00000
    117      -2.6218      2.00000
    118      -2.6174      2.00000
    119      -2.6142      2.00000
    120      -2.6111      2.00000
    121      -2.5983      2.00000
    122      -2.5925      2.00000
    123      -2.5715      2.00000
    124      -2.5522      2.00000
    125      -2.5452      2.00000
    126      -2.5416      2.00000
    127      -2.5385      2.00000
    128      -2.5248      2.00000
    129      -2.5230      2.00000
    130      -2.5195      2.00000
    131      -2.5153      2.00000
    132      -2.5112      2.00000
    133      -2.5069      2.00000
    134      -2.5048      2.00000
    135      -2.4905      2.00000
    136      -2.4877      2.00000
    137      -2.4439      2.00000
    138      -2.4272      2.00000
    139      -2.3947      2.00000
    140      -2.3693      2.00000
    141      -2.3606      2.00000
    142      -2.3546      2.00000
    143      -2.3362      2.00000
    144      -2.3265      2.00000
    145      -2.3225      2.00000
    146      -2.3208      2.00000
    147      -2.3189      2.00000
    148      -2.3163      2.00000
    149      -2.3139      2.00000
    150      -2.3031      2.00000
    151      -2.2756      2.00000
    152      -2.2740      2.00000
    153      -2.2267      2.00000
    154      -2.1953      2.00000
    155      -2.1936      2.00000
    156      -2.1849      2.00000
    157      -2.1824      2.00000
    158      -2.1734      2.00000
    159      -2.1691      2.00000
    160      -2.1597      2.00000
    161      -2.1523      2.00000
    162      -2.1506      2.00000
    163      -2.1488      2.00000
    164      -2.1477      2.00000
    165      -2.1464      2.00000
    166      -2.1376      2.00000
    167      -2.1352      2.00000
    168      -2.1333      2.00000
    169      -2.1089      2.00000
    170      -2.1068      2.00000
    171      -2.0714      2.00000
    172      -2.0680      2.00000
    173      -2.0674      2.00000
    174      -2.0618      2.00000
    175      -2.0583      2.00000
    176      -2.0218      2.00000
    177      -1.9873      2.00000
    178      -1.9854      2.00000
    179      -1.9824      2.00000
    180      -1.9799      2.00000
    181      -1.9752      2.00000
    182      -1.9702      2.00000
    183      -1.9674      2.00000
    184      -1.9529      2.00000
    185      -1.9331      2.00000
    186      -1.9263      2.00000
    187      -1.9236      2.00000
    188      -1.9227      2.00000
    189      -1.9125      2.00000
    190      -1.9085      2.00000
    191      -1.9047      2.00000
    192      -1.8610      2.00000
    193      -1.4405      2.00000
    194      -1.4370      2.00000
    195      -1.1815      1.99998
    196      -1.1801      1.99998
    197      -1.1021      1.99978
    198      -0.8245      1.99375
    199      -0.7161      2.06217
    200      -0.4887      1.27804
    201      -0.4844      1.23365
    202      -0.2154     -0.06932
    203      -0.2096     -0.06371
    204       0.6455      0.00000
    205       0.7240      0.00000
    206       0.8317      0.00000
    207       1.2134      0.00000
    208       1.2193      0.00000
    209       1.6547      0.00000
    210       1.6575      0.00000
    211       1.7547      0.00000
    212       1.7688      0.00000
    213       2.9710      0.00000
    214       3.0346      0.00000
    215       3.0399      0.00000
    216       3.1712      0.00000
    217       3.2089      0.00000
    218       3.3683      0.00000
    219       3.3762      0.00000
    220       3.5155      0.00000
    221       3.5578      0.00000
    222       3.5617      0.00000
    223       3.6881      0.00000
    224       3.6921      0.00000
    225       4.1861      0.00000
    226       4.4088      0.00000
    227       4.4103      0.00000
    228       4.7072      0.00000
    229       4.7103      0.00000
    230       4.8525      0.00000
    231       5.0560      0.00000
    232       5.0623      0.00000
    233       5.1481      0.00000
    234       5.1500      0.00000
    235       5.2064      0.00000
    236       5.2107      0.00000
    237       5.3600      0.00000
    238       5.3835      0.00000
    239       5.4735      0.00000
    240       5.5718      0.00000

 k-point     5 :       0.1250    0.3750    0.0000
  band No.  band energies     occupation 
      1      -8.5499      2.00000
      2      -7.9218      2.00000
      3      -7.0269      2.00000
      4      -6.7628      2.00000
      5      -6.4740      2.00000
      6      -6.2419      2.00000
      7      -5.8236      2.00000
      8      -5.5564      2.00000
      9      -5.4323      2.00000
     10      -5.2892      2.00000
     11      -5.1944      2.00000
     12      -5.1237      2.00000
     13      -5.0945      2.00000
     14      -5.0871      2.00000
     15      -4.8445      2.00000
     16      -4.8159      2.00000
     17      -4.8096      2.00000
     18      -4.7544      2.00000
     19      -4.7467      2.00000
     20      -4.7055      2.00000
     21      -4.5963      2.00000
     22      -4.5448      2.00000
     23      -4.5352      2.00000
     24      -4.4992      2.00000
     25      -4.4686      2.00000
     26      -4.4314      2.00000
     27      -4.4208      2.00000
     28      -4.4126      2.00000
     29      -4.3990      2.00000
     30      -4.3695      2.00000
     31      -4.3509      2.00000
     32      -4.3454      2.00000
     33      -4.2556      2.00000
     34      -4.2488      2.00000
     35      -4.1725      2.00000
     36      -4.1617      2.00000
     37      -4.1374      2.00000
     38      -4.1294      2.00000
     39      -4.0676      2.00000
     40      -4.0649      2.00000
     41      -4.0462      2.00000
     42      -4.0201      2.00000
     43      -4.0106      2.00000
     44      -3.9453      2.00000
     45      -3.9402      2.00000
     46      -3.9303      2.00000
     47      -3.8771      2.00000
     48      -3.8382      2.00000
     49      -3.8352      2.00000
     50      -3.8163      2.00000
     51      -3.8077      2.00000
     52      -3.7511      2.00000
     53      -3.7063      2.00000
     54      -3.6949      2.00000
     55      -3.6826      2.00000
     56      -3.6587      2.00000
     57      -3.6514      2.00000
     58      -3.6377      2.00000
     59      -3.5912      2.00000
     60      -3.5868      2.00000
     61      -3.5691      2.00000
     62      -3.5642      2.00000
     63      -3.5513      2.00000
     64      -3.5439      2.00000
     65      -3.5329      2.00000
     66      -3.5256      2.00000
     67      -3.5097      2.00000
     68      -3.4359      2.00000
     69      -3.3966      2.00000
     70      -3.3659      2.00000
     71      -3.3573      2.00000
     72      -3.3517      2.00000
     73      -3.3329      2.00000
     74      -3.3215      2.00000
     75      -3.2728      2.00000
     76      -3.2522      2.00000
     77      -3.2262      2.00000
     78      -3.2234      2.00000
     79      -3.2126      2.00000
     80      -3.2082      2.00000
     81      -3.2022      2.00000
     82      -3.1987      2.00000
     83      -3.1895      2.00000
     84      -3.1861      2.00000
     85      -3.1696      2.00000
     86      -3.1574      2.00000
     87      -3.1429      2.00000
     88      -3.1405      2.00000
     89      -3.1160      2.00000
     90      -3.1108      2.00000
     91      -3.1051      2.00000
     92      -3.0833      2.00000
     93      -3.0764      2.00000
     94      -3.0428      2.00000
     95      -3.0356      2.00000
     96      -3.0080      2.00000
     97      -2.9825      2.00000
     98      -2.9796      2.00000
     99      -2.9198      2.00000
    100      -2.9068      2.00000
    101      -2.8723      2.00000
    102      -2.8704      2.00000
    103      -2.8605      2.00000
    104      -2.8532      2.00000
    105      -2.8463      2.00000
    106      -2.8424      2.00000
    107      -2.8249      2.00000
    108      -2.8191      2.00000
    109      -2.8063      2.00000
    110      -2.7902      2.00000
    111      -2.7811      2.00000
    112      -2.7667      2.00000
    113      -2.7351      2.00000
    114      -2.7193      2.00000
    115      -2.7166      2.00000
    116      -2.7104      2.00000
    117      -2.7071      2.00000
    118      -2.6998      2.00000
    119      -2.6755      2.00000
    120      -2.6681      2.00000
    121      -2.6539      2.00000
    122      -2.6353      2.00000
    123      -2.6282      2.00000
    124      -2.6204      2.00000
    125      -2.6128      2.00000
    126      -2.5530      2.00000
    127      -2.5235      2.00000
    128      -2.5076      2.00000
    129      -2.4993      2.00000
    130      -2.4964      2.00000
    131      -2.4812      2.00000
    132      -2.4697      2.00000
    133      -2.4529      2.00000
    134      -2.4428      2.00000
    135      -2.4333      2.00000
    136      -2.4304      2.00000
    137      -2.4257      2.00000
    138      -2.4199      2.00000
    139      -2.3989      2.00000
    140      -2.3933      2.00000
    141      -2.3902      2.00000
    142      -2.3866      2.00000
    143      -2.3731      2.00000
    144      -2.3711      2.00000
    145      -2.3508      2.00000
    146      -2.3470      2.00000
    147      -2.3279      2.00000
    148      -2.3205      2.00000
    149      -2.2923      2.00000
    150      -2.2867      2.00000
    151      -2.2804      2.00000
    152      -2.2480      2.00000
    153      -2.2303      2.00000
    154      -2.2248      2.00000
    155      -2.2154      2.00000
    156      -2.2129      2.00000
    157      -2.1773      2.00000
    158      -2.1724      2.00000
    159      -2.1502      2.00000
    160      -2.1491      2.00000
    161      -2.1474      2.00000
    162      -2.1386      2.00000
    163      -2.1330      2.00000
    164      -2.1291      2.00000
    165      -2.1248      2.00000
    166      -2.1105      2.00000
    167      -2.0922      2.00000
    168      -2.0896      2.00000
    169      -2.0872      2.00000
    170      -2.0864      2.00000
    171      -2.0770      2.00000
    172      -2.0639      2.00000
    173      -2.0617      2.00000
    174      -2.0573      2.00000
    175      -2.0427      2.00000
    176      -2.0230      2.00000
    177      -2.0040      2.00000
    178      -1.9939      2.00000
    179      -1.9834      2.00000
    180      -1.9796      2.00000
    181      -1.9695      2.00000
    182      -1.9383      2.00000
    183      -1.9287      2.00000
    184      -1.9257      2.00000
    185      -1.9103      2.00000
    186      -1.8860      2.00000
    187      -1.8359      2.00000
    188      -1.7989      2.00000
    189      -1.7710      2.00000
    190      -1.7125      2.00000
    191      -1.6726      2.00000
    192      -1.6064      2.00000
    193      -1.5370      2.00000
    194      -1.1844      1.99998
    195      -1.0943      1.99973
    196      -0.9599      1.99571
    197      -0.7881      2.00603
    198      -0.3618      0.12093
    199      -0.1814     -0.03739
    200      -0.1700     -0.02790
    201      -0.0940      0.00727
    202       0.0074      0.00629
    203       0.1494      0.00046
    204       0.3517      0.00000
    205       0.5831      0.00000
    206       0.7813      0.00000
    207       1.1581      0.00000
    208       1.3044      0.00000
    209       1.5706      0.00000
    210       1.5879      0.00000
    211       2.0713      0.00000
    212       2.1672      0.00000
    213       2.2306      0.00000
    214       2.2544      0.00000
    215       2.2692      0.00000
    216       2.6019      0.00000
    217       2.7152      0.00000
    218       2.8002      0.00000
    219       3.2502      0.00000
    220       3.2575      0.00000
    221       3.5298      0.00000
    222       3.6604      0.00000
    223       3.6917      0.00000
    224       3.7472      0.00000
    225       3.9030      0.00000
    226       3.9804      0.00000
    227       4.1682      0.00000
    228       4.4602      0.00000
    229       4.4935      0.00000
    230       4.5248      0.00000
    231       4.5477      0.00000
    232       4.8484      0.00000
    233       4.9988      0.00000
    234       5.0689      0.00000
    235       5.1047      0.00000
    236       5.1811      0.00000
    237       5.3413      0.00000
    238       5.4568      0.00000
    239       5.4834      0.00000
    240       5.9159      0.00000

 k-point     6 :       0.3750    0.3750    0.0000
  band No.  band energies     occupation 
      1      -8.2298      2.00000
      2      -7.6164      2.00000
      3      -7.6095      2.00000
      4      -7.0256      2.00000
      5      -6.7319      2.00000
      6      -6.1969      2.00000
      7      -6.1882      2.00000
      8      -5.6881      2.00000
      9      -5.1019      2.00000
     10      -5.0949      2.00000
     11      -4.9603      2.00000
     12      -4.9185      2.00000
     13      -4.9101      2.00000
     14      -4.8666      2.00000
     15      -4.8381      2.00000
     16      -4.8348      2.00000
     17      -4.8080      2.00000
     18      -4.6579      2.00000
     19      -4.6424      2.00000
     20      -4.6379      2.00000
     21      -4.6208      2.00000
     22      -4.6162      2.00000
     23      -4.4960      2.00000
     24      -4.4929      2.00000
     25      -4.4630      2.00000
     26      -4.4563      2.00000
     27      -4.4261      2.00000
     28      -4.4198      2.00000
     29      -4.4081      2.00000
     30      -4.4056      2.00000
     31      -4.3374      2.00000
     32      -4.3170      2.00000
     33      -4.3126      2.00000
     34      -4.3078      2.00000
     35      -4.2624      2.00000
     36      -4.2578      2.00000
     37      -4.2378      2.00000
     38      -4.1811      2.00000
     39      -4.1792      2.00000
     40      -4.1707      2.00000
     41      -4.1247      2.00000
     42      -4.0027      2.00000
     43      -3.9641      2.00000
     44      -3.9263      2.00000
     45      -3.9232      2.00000
     46      -3.8613      2.00000
     47      -3.8509      2.00000
     48      -3.8364      2.00000
     49      -3.8304      2.00000
     50      -3.8232      2.00000
     51      -3.8084      2.00000
     52      -3.8031      2.00000
     53      -3.7686      2.00000
     54      -3.7600      2.00000
     55      -3.7270      2.00000
     56      -3.6426      2.00000
     57      -3.6338      2.00000
     58      -3.6263      2.00000
     59      -3.6184      2.00000
     60      -3.5810      2.00000
     61      -3.5738      2.00000
     62      -3.5389      2.00000
     63      -3.5370      2.00000
     64      -3.4963      2.00000
     65      -3.4880      2.00000
     66      -3.4707      2.00000
     67      -3.4647      2.00000
     68      -3.4503      2.00000
     69      -3.4417      2.00000
     70      -3.3931      2.00000
     71      -3.3843      2.00000
     72      -3.3638      2.00000
     73      -3.3605      2.00000
     74      -3.3501      2.00000
     75      -3.3398      2.00000
     76      -3.3055      2.00000
     77      -3.2710      2.00000
     78      -3.2646      2.00000
     79      -3.2603      2.00000
     80      -3.2559      2.00000
     81      -3.2532      2.00000
     82      -3.2452      2.00000
     83      -3.1877      2.00000
     84      -3.1769      2.00000
     85      -3.1727      2.00000
     86      -3.1550      2.00000
     87      -3.1352      2.00000
     88      -3.1328      2.00000
     89      -3.1040      2.00000
     90      -3.0994      2.00000
     91      -3.0760      2.00000
     92      -3.0710      2.00000
     93      -3.0671      2.00000
     94      -3.0302      2.00000
     95      -3.0278      2.00000
     96      -2.9782      2.00000
     97      -2.9653      2.00000
     98      -2.9625      2.00000
     99      -2.9443      2.00000
    100      -2.9289      2.00000
    101      -2.9234      2.00000
    102      -2.8891      2.00000
    103      -2.8688      2.00000
    104      -2.8637      2.00000
    105      -2.8610      2.00000
    106      -2.8572      2.00000
    107      -2.8470      2.00000
    108      -2.8451      2.00000
    109      -2.8382      2.00000
    110      -2.8281      2.00000
    111      -2.7775      2.00000
    112      -2.7732      2.00000
    113      -2.7709      2.00000
    114      -2.7638      2.00000
    115      -2.7464      2.00000
    116      -2.7383      2.00000
    117      -2.7222      2.00000
    118      -2.7201      2.00000
    119      -2.7151      2.00000
    120      -2.7127      2.00000
    121      -2.7064      2.00000
    122      -2.7027      2.00000
    123      -2.6950      2.00000
    124      -2.6834      2.00000
    125      -2.6813      2.00000
    126      -2.6800      2.00000
    127      -2.6477      2.00000
    128      -2.6252      2.00000
    129      -2.6214      2.00000
    130      -2.5987      2.00000
    131      -2.5408      2.00000
    132      -2.5369      2.00000
    133      -2.4892      2.00000
    134      -2.4858      2.00000
    135      -2.4402      2.00000
    136      -2.4382      2.00000
    137      -2.4373      2.00000
    138      -2.4050      2.00000
    139      -2.3839      2.00000
    140      -2.3799      2.00000
    141      -2.3774      2.00000
    142      -2.3749      2.00000
    143      -2.3671      2.00000
    144      -2.3625      2.00000
    145      -2.3569      2.00000
    146      -2.3388      2.00000
    147      -2.3377      2.00000
    148      -2.2989      2.00000
    149      -2.2954      2.00000
    150      -2.2786      2.00000
    151      -2.2493      2.00000
    152      -2.2149      2.00000
    153      -2.2107      2.00000
    154      -2.1989      2.00000
    155      -2.1949      2.00000
    156      -2.1924      2.00000
    157      -2.1894      2.00000
    158      -2.1863      2.00000
    159      -2.1671      2.00000
    160      -2.1657      2.00000
    161      -2.1638      2.00000
    162      -2.1626      2.00000
    163      -2.1541      2.00000
    164      -2.1527      2.00000
    165      -2.1492      2.00000
    166      -2.1479      2.00000
    167      -2.0749      2.00000
    168      -2.0700      2.00000
    169      -2.0580      2.00000
    170      -2.0415      2.00000
    171      -2.0408      2.00000
    172      -2.0352      2.00000
    173      -2.0257      2.00000
    174      -2.0134      2.00000
    175      -2.0131      2.00000
    176      -1.9975      2.00000
    177      -1.9970      2.00000
    178      -1.9748      2.00000
    179      -1.9722      2.00000
    180      -1.9699      2.00000
    181      -1.9662      2.00000
    182      -1.9568      2.00000
    183      -1.9556      2.00000
    184      -1.9451      2.00000
    185      -1.9355      2.00000
    186      -1.8898      2.00000
    187      -1.7107      2.00000
    188      -1.6175      2.00000
    189      -1.5856      2.00000
    190      -1.3395      2.00000
    191      -1.3380      2.00000
    192      -1.0053      1.99802
    193      -1.0029      1.99793
    194      -0.8581      1.99023
    195      -0.6746      2.09685
    196      -0.6738      2.09732
    197      -0.5282      1.64387
    198      -0.5233      1.60296
    199       0.0406      0.00398
    200       0.2486      0.00003
    201       0.2531      0.00003
    202       0.4371      0.00000
    203       0.4386      0.00000
    204       0.5299      0.00000
    205       0.5339      0.00000
    206       0.7106      0.00000
    207       0.7205      0.00000
    208       0.9401      0.00000
    209       0.9435      0.00000
    210       1.3622      0.00000
    211       1.5108      0.00000
    212       1.5221      0.00000
    213       1.5814      0.00000
    214       1.7969      0.00000
    215       2.3250      0.00000
    216       2.6476      0.00000
    217       2.6541      0.00000
    218       2.7654      0.00000
    219       2.7732      0.00000
    220       3.1080      0.00000
    221       3.1102      0.00000
    222       3.4198      0.00000
    223       3.4728      0.00000
    224       3.5518      0.00000
    225       3.5531      0.00000
    226       3.8501      0.00000
    227       4.1510      0.00000
    228       4.1586      0.00000
    229       4.3514      0.00000
    230       4.4864      0.00000
    231       4.4887      0.00000
    232       4.8006      0.00000
    233       5.0530      0.00000
    234       5.0557      0.00000
    235       5.1232      0.00000
    236       5.4120      0.00000
    237       5.4126      0.00000
    238       5.4961      0.00000
    239       5.5048      0.00000
    240       5.5092      0.00000

 k-point     7 :      -0.3750    0.3750    0.0000
  band No.  band energies     occupation 
      1      -8.2298      2.00000
      2      -7.6157      2.00000
      3      -7.6102      2.00000
      4      -7.0256      2.00000
      5      -6.7319      2.00000
      6      -6.1980      2.00000
      7      -6.1871      2.00000
      8      -5.6881      2.00000
      9      -5.1021      2.00000
     10      -5.0948      2.00000
     11      -4.9602      2.00000
     12      -4.9188      2.00000
     13      -4.9096      2.00000
     14      -4.8665      2.00000
     15      -4.8373      2.00000
     16      -4.8349      2.00000
     17      -4.8090      2.00000
     18      -4.6580      2.00000
     19      -4.6427      2.00000
     20      -4.6374      2.00000
     21      -4.6203      2.00000
     22      -4.6169      2.00000
     23      -4.4957      2.00000
     24      -4.4932      2.00000
     25      -4.4630      2.00000
     26      -4.4560      2.00000
     27      -4.4258      2.00000
     28      -4.4198      2.00000
     29      -4.4088      2.00000
     30      -4.4057      2.00000
     31      -4.3375      2.00000
     32      -4.3171      2.00000
     33      -4.3124      2.00000
     34      -4.3079      2.00000
     35      -4.2624      2.00000
     36      -4.2576      2.00000
     37      -4.2376      2.00000
     38      -4.1811      2.00000
     39      -4.1789      2.00000
     40      -4.1710      2.00000
     41      -4.1247      2.00000
     42      -4.0028      2.00000
     43      -3.9640      2.00000
     44      -3.9261      2.00000
     45      -3.9232      2.00000
     46      -3.8619      2.00000
     47      -3.8513      2.00000
     48      -3.8363      2.00000
     49      -3.8301      2.00000
     50      -3.8241      2.00000
     51      -3.8077      2.00000
     52      -3.8031      2.00000
     53      -3.7683      2.00000
     54      -3.7594      2.00000
     55      -3.7271      2.00000
     56      -3.6427      2.00000
     57      -3.6339      2.00000
     58      -3.6257      2.00000
     59      -3.6185      2.00000
     60      -3.5814      2.00000
     61      -3.5738      2.00000
     62      -3.5391      2.00000
     63      -3.5368      2.00000
     64      -3.4980      2.00000
     65      -3.4872      2.00000
     66      -3.4716      2.00000
     67      -3.4625      2.00000
     68      -3.4503      2.00000
     69      -3.4409      2.00000
     70      -3.3944      2.00000
     71      -3.3844      2.00000
     72      -3.3638      2.00000
     73      -3.3600      2.00000
     74      -3.3500      2.00000
     75      -3.3401      2.00000
     76      -3.3058      2.00000
     77      -3.2712      2.00000
     78      -3.2641      2.00000
     79      -3.2608      2.00000
     80      -3.2555      2.00000
     81      -3.2531      2.00000
     82      -3.2450      2.00000
     83      -3.1891      2.00000
     84      -3.1765      2.00000
     85      -3.1719      2.00000
     86      -3.1536      2.00000
     87      -3.1352      2.00000
     88      -3.1331      2.00000
     89      -3.1041      2.00000
     90      -3.0999      2.00000
     91      -3.0765      2.00000
     92      -3.0706      2.00000
     93      -3.0675      2.00000
     94      -3.0311      2.00000
     95      -3.0270      2.00000
     96      -2.9781      2.00000
     97      -2.9651      2.00000
     98      -2.9625      2.00000
     99      -2.9447      2.00000
    100      -2.9291      2.00000
    101      -2.9235      2.00000
    102      -2.8895      2.00000
    103      -2.8694      2.00000
    104      -2.8634      2.00000
    105      -2.8608      2.00000
    106      -2.8570      2.00000
    107      -2.8464      2.00000
    108      -2.8452      2.00000
    109      -2.8388      2.00000
    110      -2.8267      2.00000
    111      -2.7770      2.00000
    112      -2.7737      2.00000
    113      -2.7708      2.00000
    114      -2.7630      2.00000
    115      -2.7471      2.00000
    116      -2.7383      2.00000
    117      -2.7230      2.00000
    118      -2.7192      2.00000
    119      -2.7138      2.00000
    120      -2.7122      2.00000
    121      -2.7065      2.00000
    122      -2.7032      2.00000
    123      -2.6965      2.00000
    124      -2.6837      2.00000
    125      -2.6810      2.00000
    126      -2.6801      2.00000
    127      -2.6480      2.00000
    128      -2.6235      2.00000
    129      -2.6224      2.00000
    130      -2.5997      2.00000
    131      -2.5410      2.00000
    132      -2.5360      2.00000
    133      -2.4889      2.00000
    134      -2.4861      2.00000
    135      -2.4402      2.00000
    136      -2.4386      2.00000
    137      -2.4376      2.00000
    138      -2.4048      2.00000
    139      -2.3835      2.00000
    140      -2.3807      2.00000
    141      -2.3782      2.00000
    142      -2.3746      2.00000
    143      -2.3666      2.00000
    144      -2.3628      2.00000
    145      -2.3564      2.00000
    146      -2.3389      2.00000
    147      -2.3376      2.00000
    148      -2.2987      2.00000
    149      -2.2954      2.00000
    150      -2.2786      2.00000
    151      -2.2493      2.00000
    152      -2.2149      2.00000
    153      -2.2106      2.00000
    154      -2.1993      2.00000
    155      -2.1951      2.00000
    156      -2.1925      2.00000
    157      -2.1892      2.00000
    158      -2.1861      2.00000
    159      -2.1669      2.00000
    160      -2.1656      2.00000
    161      -2.1638      2.00000
    162      -2.1625      2.00000
    163      -2.1540      2.00000
    164      -2.1524      2.00000
    165      -2.1495      2.00000
    166      -2.1478      2.00000
    167      -2.0746      2.00000
    168      -2.0703      2.00000
    169      -2.0582      2.00000
    170      -2.0418      2.00000
    171      -2.0407      2.00000
    172      -2.0351      2.00000
    173      -2.0259      2.00000
    174      -2.0133      2.00000
    175      -2.0130      2.00000
    176      -1.9976      2.00000
    177      -1.9970      2.00000
    178      -1.9749      2.00000
    179      -1.9729      2.00000
    180      -1.9693      2.00000
    181      -1.9659      2.00000
    182      -1.9571      2.00000
    183      -1.9553      2.00000
    184      -1.9452      2.00000
    185      -1.9355      2.00000
    186      -1.8898      2.00000
    187      -1.7107      2.00000
    188      -1.6175      2.00000
    189      -1.5857      2.00000
    190      -1.3394      2.00000
    191      -1.3380      2.00000
    192      -1.0048      1.99800
    193      -1.0033      1.99795
    194      -0.8582      1.99023
    195      -0.6747      2.09680
    196      -0.6737      2.09737
    197      -0.5291      1.65116
    198      -0.5221      1.59320
    199       0.0406      0.00399
    200       0.2484      0.00003
    201       0.2531      0.00003
    202       0.4370      0.00000
    203       0.4385      0.00000
    204       0.5298      0.00000
    205       0.5338      0.00000
    206       0.7110      0.00000
    207       0.7202      0.00000
    208       0.9406      0.00000
    209       0.9432      0.00000
    210       1.3623      0.00000
    211       1.5131      0.00000
    212       1.5218      0.00000
    213       1.5795      0.00000
    214       1.7969      0.00000
    215       2.3253      0.00000
    216       2.6466      0.00000
    217       2.6551      0.00000
    218       2.7645      0.00000
    219       2.7740      0.00000
    220       3.1083      0.00000
    221       3.1104      0.00000
    222       3.4198      0.00000
    223       3.4713      0.00000
    224       3.5510      0.00000
    225       3.5546      0.00000
    226       3.8501      0.00000
    227       4.1507      0.00000
    228       4.1591      0.00000
    229       4.3517      0.00000
    230       4.4865      0.00000
    231       4.4886      0.00000
    232       4.8006      0.00000
    233       5.0531      0.00000
    234       5.0556      0.00000
    235       5.1233      0.00000
    236       5.4120      0.00000
    237       5.4144      0.00000
    238       5.4942      0.00000
    239       5.5083      0.00000
    240       6.0841      0.00000

 k-point     8 :      -0.1250    0.3750    0.0000
  band No.  band energies     occupation 
      1      -8.5499      2.00000
      2      -7.9218      2.00000
      3      -7.0269      2.00000
      4      -6.7628      2.00000
      5      -6.4740      2.00000
      6      -6.2419      2.00000
      7      -5.8236      2.00000
      8      -5.5564      2.00000
      9      -5.4323      2.00000
     10      -5.2892      2.00000
     11      -5.1944      2.00000
     12      -5.1236      2.00000
     13      -5.0950      2.00000
     14      -5.0866      2.00000
     15      -4.8445      2.00000
     16      -4.8158      2.00000
     17      -4.8097      2.00000
     18      -4.7552      2.00000
     19      -4.7463      2.00000
     20      -4.7053      2.00000
     21      -4.5963      2.00000
     22      -4.5448      2.00000
     23      -4.5352      2.00000
     24      -4.4993      2.00000
     25      -4.4684      2.00000
     26      -4.4316      2.00000
     27      -4.4209      2.00000
     28      -4.4126      2.00000
     29      -4.3987      2.00000
     30      -4.3693      2.00000
     31      -4.3510      2.00000
     32      -4.3455      2.00000
     33      -4.2551      2.00000
     34      -4.2494      2.00000
     35      -4.1724      2.00000
     36      -4.1614      2.00000
     37      -4.1374      2.00000
     38      -4.1297      2.00000
     39      -4.0675      2.00000
     40      -4.0650      2.00000
     41      -4.0463      2.00000
     42      -4.0204      2.00000
     43      -4.0104      2.00000
     44      -3.9454      2.00000
     45      -3.9403      2.00000
     46      -3.9300      2.00000
     47      -3.8770      2.00000
     48      -3.8379      2.00000
     49      -3.8353      2.00000
     50      -3.8167      2.00000
     51      -3.8077      2.00000
     52      -3.7511      2.00000
     53      -3.7062      2.00000
     54      -3.6955      2.00000
     55      -3.6824      2.00000
     56      -3.6583      2.00000
     57      -3.6513      2.00000
     58      -3.6380      2.00000
     59      -3.5910      2.00000
     60      -3.5869      2.00000
     61      -3.5686      2.00000
     62      -3.5642      2.00000
     63      -3.5514      2.00000
     64      -3.5438      2.00000
     65      -3.5332      2.00000
     66      -3.5256      2.00000
     67      -3.5096      2.00000
     68      -3.4358      2.00000
     69      -3.3965      2.00000
     70      -3.3659      2.00000
     71      -3.3579      2.00000
     72      -3.3519      2.00000
     73      -3.3328      2.00000
     74      -3.3210      2.00000
     75      -3.2725      2.00000
     76      -3.2516      2.00000
     77      -3.2265      2.00000
     78      -3.2239      2.00000
     79      -3.2129      2.00000
     80      -3.2087      2.00000
     81      -3.2018      2.00000
     82      -3.1979      2.00000
     83      -3.1889      2.00000
     84      -3.1871      2.00000
     85      -3.1692      2.00000
     86      -3.1573      2.00000
     87      -3.1434      2.00000
     88      -3.1389      2.00000
     89      -3.1171      2.00000
     90      -3.1107      2.00000
     91      -3.1055      2.00000
     92      -3.0831      2.00000
     93      -3.0764      2.00000
     94      -3.0426      2.00000
     95      -3.0356      2.00000
     96      -3.0085      2.00000
     97      -2.9830      2.00000
     98      -2.9798      2.00000
     99      -2.9205      2.00000
    100      -2.9066      2.00000
    101      -2.8727      2.00000
    102      -2.8694      2.00000
    103      -2.8589      2.00000
    104      -2.8533      2.00000
    105      -2.8464      2.00000
    106      -2.8421      2.00000
    107      -2.8244      2.00000
    108      -2.8189      2.00000
    109      -2.8087      2.00000
    110      -2.7901      2.00000
    111      -2.7806      2.00000
    112      -2.7672      2.00000
    113      -2.7353      2.00000
    114      -2.7202      2.00000
    115      -2.7167      2.00000
    116      -2.7096      2.00000
    117      -2.7068      2.00000
    118      -2.6989      2.00000
    119      -2.6745      2.00000
    120      -2.6681      2.00000
    121      -2.6541      2.00000
    122      -2.6360      2.00000
    123      -2.6268      2.00000
    124      -2.6201      2.00000
    125      -2.6144      2.00000
    126      -2.5529      2.00000
    127      -2.5237      2.00000
    128      -2.5074      2.00000
    129      -2.4993      2.00000
    130      -2.4969      2.00000
    131      -2.4812      2.00000
    132      -2.4696      2.00000
    133      -2.4530      2.00000
    134      -2.4433      2.00000
    135      -2.4337      2.00000
    136      -2.4300      2.00000
    137      -2.4257      2.00000
    138      -2.4200      2.00000
    139      -2.3993      2.00000
    140      -2.3933      2.00000
    141      -2.3906      2.00000
    142      -2.3868      2.00000
    143      -2.3726      2.00000
    144      -2.3714      2.00000
    145      -2.3501      2.00000
    146      -2.3472      2.00000
    147      -2.3279      2.00000
    148      -2.3202      2.00000
    149      -2.2927      2.00000
    150      -2.2864      2.00000
    151      -2.2804      2.00000
    152      -2.2476      2.00000
    153      -2.2308      2.00000
    154      -2.2244      2.00000
    155      -2.2154      2.00000
    156      -2.2131      2.00000
    157      -2.1772      2.00000
    158      -2.1722      2.00000
    159      -2.1504      2.00000
    160      -2.1496      2.00000
    161      -2.1472      2.00000
    162      -2.1384      2.00000
    163      -2.1334      2.00000
    164      -2.1291      2.00000
    165      -2.1243      2.00000
    166      -2.1104      2.00000
    167      -2.0928      2.00000
    168      -2.0896      2.00000
    169      -2.0874      2.00000
    170      -2.0862      2.00000
    171      -2.0762      2.00000
    172      -2.0640      2.00000
    173      -2.0617      2.00000
    174      -2.0574      2.00000
    175      -2.0428      2.00000
    176      -2.0230      2.00000
    177      -2.0041      2.00000
    178      -1.9940      2.00000
    179      -1.9832      2.00000
    180      -1.9797      2.00000
    181      -1.9694      2.00000
    182      -1.9383      2.00000
    183      -1.9285      2.00000
    184      -1.9256      2.00000
    185      -1.9103      2.00000
    186      -1.8863      2.00000
    187      -1.8357      2.00000
    188      -1.7990      2.00000
    189      -1.7712      2.00000
    190      -1.7127      2.00000
    191      -1.6725      2.00000
    192      -1.6064      2.00000
    193      -1.5368      2.00000
    194      -1.1844      1.99998
    195      -1.0942      1.99973
    196      -0.9599      1.99571
    197      -0.7879      2.00610
    198      -0.3618      0.12100
    199      -0.1825     -0.03837
    200      -0.1690     -0.02706
    201      -0.0940      0.00727
    202       0.0073      0.00630
    203       0.1494      0.00046
    204       0.3517      0.00000
    205       0.5830      0.00000
    206       0.7814      0.00000
    207       1.1582      0.00000
    208       1.3045      0.00000
    209       1.5702      0.00000
    210       1.5883      0.00000
    211       2.0710      0.00000
    212       2.1671      0.00000
    213       2.2306      0.00000
    214       2.2548      0.00000
    215       2.2695      0.00000
    216       2.6015      0.00000
    217       2.7156      0.00000
    218       2.8002      0.00000
    219       3.2493      0.00000
    220       3.2582      0.00000
    221       3.5298      0.00000
    222       3.6602      0.00000
    223       3.6918      0.00000
    224       3.7473      0.00000
    225       3.9020      0.00000
    226       3.9814      0.00000
    227       4.1682      0.00000
    228       4.4602      0.00000
    229       4.4934      0.00000
    230       4.5248      0.00000
    231       4.5475      0.00000
    232       4.8486      0.00000
    233       4.9994      0.00000
    234       5.0681      0.00000
    235       5.1046      0.00000
    236       5.1811      0.00000
    237       5.3411      0.00000
    238       5.4574      0.00000
    239       5.4721      0.00000
    240       5.8445      0.00000


--------------------------------------------------------------------------------------------------------


 soft charge-density along one line, spin component           1
         0         1         2         3         4         5         6         7         8         9
 total charge-density along one line
 
 pseudopotential strength for first ion, spin component:           1
 -8.420  -0.000   0.000  -0.000   0.000  -0.554   0.000  -0.000
 -0.000  -8.414  -0.000  -0.000   0.000   0.000  -0.561   0.000
  0.000  -0.000  -8.400  -0.000  -0.000  -0.000   0.000  -0.572
 -0.000  -0.000  -0.000  -8.414  -0.000   0.000   0.000   0.000
  0.000   0.000  -0.000  -0.000  -8.440  -0.000  -0.000   0.000
 -0.554   0.000  -0.000   0.000  -0.000   7.396  -0.000   0.000
  0.000  -0.561   0.000   0.000  -0.000  -0.000   7.401  -0.000
 -0.000   0.000  -0.572   0.000   0.000   0.000  -0.000   7.410
  0.000   0.000   0.000  -0.561   0.000  -0.000  -0.000  -0.000
 -0.000  -0.000   0.000   0.000  -0.539   0.000   0.000  -0.000
  0.000   0.000  -0.006   0.000   0.000  -0.000  -0.000   0.003
  0.000   0.000  -0.011   0.000   0.000  -0.000  -0.000   0.005
 -0.000  -0.014   0.000   0.000   0.000   0.000   0.011  -0.000
  0.000  -0.000  -0.016  -0.000   0.000  -0.000   0.000   0.012
 -0.000   0.000   0.000  -0.014  -0.000   0.000  -0.000  -0.000
 -0.000  -0.016   0.000   0.000   0.000  -0.000   0.013  -0.000
  0.000  -0.000  -0.017  -0.000   0.000  -0.000   0.000   0.013
 -0.000   0.000   0.000  -0.016  -0.000  -0.000  -0.000  -0.000
 total augmentation occupancy for first ion, spin component:           1
  1.924  -0.000   0.000  -0.000   0.000  -0.035   0.000  -0.000   0.000  -0.000  -0.000  -0.000   0.000   0.000   0.000  -0.000
 -0.000   1.923   0.000  -0.000  -0.000   0.000  -0.026   0.000   0.000  -0.000   0.000   0.000   0.031   0.000   0.000  -0.018
  0.000   0.000   1.939  -0.000  -0.000  -0.000  -0.000  -0.037   0.000   0.000   0.001   0.013   0.000   0.045  -0.000   0.000
 -0.000  -0.000  -0.000   1.923   0.000   0.000   0.000   0.000  -0.026   0.000   0.000   0.000   0.000   0.000   0.031  -0.000
  0.000  -0.000  -0.000   0.000   1.908  -0.000  -0.000   0.000   0.000  -0.009  -0.000  -0.000  -0.000   0.000   0.000   0.000
 -0.035   0.000  -0.000   0.000  -0.000   0.011  -0.000   0.000  -0.000   0.000   0.000   0.000  -0.000  -0.000  -0.000   0.000
  0.000  -0.026  -0.000   0.000  -0.000  -0.000   0.009  -0.000  -0.000   0.000   0.000  -0.000   0.021  -0.000  -0.000  -0.001
 -0.000   0.000  -0.037   0.000   0.000   0.000  -0.000   0.011  -0.000  -0.000  -0.031   0.001  -0.000   0.017   0.000  -0.000
  0.000   0.000   0.000  -0.026   0.000  -0.000  -0.000  -0.000   0.009  -0.000   0.000   0.000  -0.000  -0.000   0.021   0.000
 -0.000  -0.000   0.000   0.000  -0.009   0.000   0.000  -0.000  -0.000   0.012   0.000   0.000   0.000   0.000   0.000  -0.000
 -0.000   0.000   0.001   0.000  -0.000   0.000   0.000  -0.031   0.000   0.000   1.592  -0.118   0.000   0.162   0.000  -0.000
 -0.000   0.000   0.013   0.000  -0.000   0.000  -0.000   0.001   0.000   0.000  -0.118   0.014   0.000  -0.023   0.000   0.000
  0.000   0.031   0.000   0.000  -0.000  -0.000   0.021  -0.000  -0.000   0.000   0.000   0.000   0.177  -0.000   0.000  -0.010
  0.000   0.000   0.045   0.000   0.000  -0.000  -0.000   0.017  -0.000   0.000   0.162  -0.023  -0.000   0.106  -0.000   0.000
  0.000   0.000  -0.000   0.031   0.000  -0.000  -0.000   0.000   0.021   0.000   0.000   0.000   0.000  -0.000   0.178   0.000
 -0.000  -0.018   0.000  -0.000   0.000   0.000  -0.001  -0.000   0.000  -0.000  -0.000   0.000  -0.010   0.000   0.000   0.001
  0.000  -0.000  -0.021  -0.000  -0.000   0.000   0.000  -0.000   0.000   0.000  -0.022   0.002   0.000  -0.008   0.000   0.000
 -0.000   0.000   0.000  -0.018  -0.000   0.000   0.000  -0.000  -0.001   0.000  -0.000   0.000   0.000  -0.000  -0.010  -0.000


------------------------ aborting loop because EDIFF is reached ----------------------------------------


    CHARGE:  cpu time    0.9308: real time    0.9386
    FORLOC:  cpu time    0.0149: real time    0.0150
    FORNL :  cpu time    3.5446: real time    3.5760
    STRESS:  cpu time   10.3223: real time   10.4095
    FORCOR:  cpu time    0.1034: real time    0.1041
    FORHAR:  cpu time    0.0371: real time    0.0373
    MIXING:  cpu time    0.0108: real time    0.0108
    OFIELD:  cpu time    0.0002: real time    0.0002

  FORCE on cell =-STRESS in cart. coord.  units (eV):
  Direction    XX          YY          ZZ          XY          YZ          ZX
  --------------------------------------------------------------------------------------
  Alpha Z   718.07260   718.07260   718.07260
  Ewald  189880.85828189876.92834************    -0.40328    -3.39754    -2.43625
  Hartree202924.93801202921.82591************    -0.21060    -1.81300    -1.41286
  E(xc)   -2312.65063 -2312.65409 -2319.78840    -0.00050    -0.00452    -0.00321
  Local  ************************405540.27607     0.59903     5.11263     3.78746
  n-local  -798.02470  -798.02264  -809.00307    -0.00600    -0.05226    -0.02438
  augment  3399.94716  3399.95116  3411.04135     0.00556     0.04701     0.02702
  Kinetic  3206.36816  3206.37931  3224.40556     0.00335     0.02737     0.02423
  Fock        0.00000     0.00000     0.00000     0.00000     0.00000     0.00000
  -------------------------------------------------------------------------------------
  Total      -3.89615    -3.86853    -3.46264    -0.01243    -0.08030    -0.03801
  in kB      -4.72930    -4.69578    -4.20309    -0.01508    -0.09747    -0.04613
  external pressure =       -4.54 kB  Pullay stress =        0.00 kB


 VOLUME and BASIS-vectors are now :
 -----------------------------------------------------------------------------
  energy-cutoff  :      544.00
  volume of cell :     1319.92
      direct lattice vectors                 reciprocal lattice vectors
     7.700375000  0.000000000  0.000000000     0.129863805  0.000000000  0.000000000
     0.000000000  7.700375000  0.000000000     0.000000000  0.129863805  0.000000000
     0.000000000  0.000000000 22.259998000     0.000000000  0.000000000  0.044923634

  length of vectors
     7.700375000  7.700375000 22.259998000     0.129863805  0.129863805  0.044923634


 FORCES acting on ions
    electron-ion (+dipol)            ewald-force                    non-local-force                 convergence-correction
 -----------------------------------------------------------------------------------------------
   0.165E+01 0.278E+01 0.327E+04   -.163E+01 -.275E+01 -.327E+04   -.225E-01 -.342E-01 -.404E+01   -.675E-04 -.416E-04 0.151E-01
   -.168E+01 0.331E+01 0.327E+04   0.166E+01 -.327E+01 -.327E+04   0.173E-01 -.335E-01 -.406E+01   -.328E-04 -.663E-04 0.150E-01
   0.317E-01 0.283E+01 0.327E+04   -.355E-01 -.280E+01 -.326E+04   0.308E-02 -.258E-01 -.408E+01   0.990E-04 -.629E-04 0.151E-01
   0.221E+01 0.255E-01 0.328E+04   -.220E+01 -.257E-01 -.327E+04   -.891E-02 0.129E-03 -.399E+01   -.874E-04 0.363E-04 0.151E-01
   -.175E+01 0.111E-01 0.328E+04   0.175E+01 -.117E-01 -.327E+04   0.133E-02 0.615E-03 -.394E+01   -.248E-04 0.419E-04 0.150E-01
   -.475E+00 0.381E-01 0.327E+04   0.465E+00 -.378E-01 -.327E+04   0.967E-02 -.358E-03 -.404E+01   0.113E-03 0.567E-04 0.151E-01
   0.163E+01 -.281E+01 0.327E+04   -.160E+01 0.277E+01 -.327E+04   -.209E-01 0.351E-01 -.404E+01   -.774E-04 0.593E-05 0.152E-01
   -.167E+01 -.332E+01 0.327E+04   0.166E+01 0.328E+01 -.327E+04   0.177E-01 0.342E-01 -.406E+01   -.131E-04 0.235E-04 0.151E-01
   0.480E-01 -.285E+01 0.327E+04   -.526E-01 0.283E+01 -.326E+04   0.380E-02 0.243E-01 -.408E+01   0.889E-04 0.792E-05 0.151E-01
   0.979E+01 -.654E+00 0.109E+04   -.977E+01 0.647E+00 -.109E+04   -.553E-01 0.140E-01 -.168E+00   0.571E-04 -.940E-04 0.279E-01
   -.259E+01 -.241E+00 0.110E+04   0.257E+01 0.238E+00 -.110E+04   0.330E-01 0.504E-02 -.247E+00   -.138E-03 -.691E-04 0.278E-01
   -.754E+01 -.380E+00 0.109E+04   0.754E+01 0.375E+00 -.109E+04   0.341E-01 0.976E-02 -.138E+00   0.822E-04 -.119E-03 0.278E-01
   0.842E+01 0.117E+02 0.110E+04   -.842E+01 -.117E+02 -.110E+04   -.409E-01 -.212E-01 -.403E+00   0.979E-04 0.476E-04 0.279E-01
   0.246E+01 0.183E+02 0.111E+04   -.247E+01 -.183E+02 -.111E+04   -.894E-02 -.959E-01 -.613E+00   -.124E-03 0.939E-04 0.279E-01
   -.106E+02 0.160E+02 0.111E+04   0.106E+02 -.160E+02 -.110E+04   0.428E-01 -.532E-01 -.505E+00   0.271E-04 0.902E-04 0.278E-01
   0.844E+01 -.116E+02 0.110E+04   -.843E+01 0.117E+02 -.110E+04   -.455E-01 0.285E-01 -.400E+00   0.478E-04 0.481E-04 0.279E-01
   0.251E+01 -.181E+02 0.111E+04   -.252E+01 0.181E+02 -.111E+04   -.132E-01 0.930E-01 -.614E+00   -.103E-03 -.237E-04 0.279E-01
   -.103E+02 -.161E+02 0.111E+04   0.103E+02 0.161E+02 -.110E+04   0.392E-01 0.615E-01 -.494E+00   0.555E-04 0.307E-04 0.279E-01
   0.210E+01 -.262E+01 -.112E+04   -.212E+01 0.259E+01 0.111E+04   0.262E-01 0.635E-01 0.419E+00   -.943E-04 -.296E-04 0.289E-01
   -.640E+01 0.121E+01 -.112E+04   0.641E+01 -.124E+01 0.112E+04   0.153E-01 0.101E-01 0.423E+00   -.783E-04 -.576E-05 0.289E-01
   0.399E+01 0.746E+01 -.114E+04   -.399E+01 -.742E+01 0.114E+04   -.331E-01 -.136E+00 0.138E+00   0.167E-03 -.266E-04 0.289E-01
   0.452E+01 -.521E+00 -.108E+04   -.451E+01 0.523E+00 0.108E+04   -.639E-01 0.373E-02 0.123E+01   -.377E-04 0.992E-04 0.290E-01
   -.809E+01 -.265E+00 -.107E+04   0.807E+01 0.270E+00 0.106E+04   0.107E+00 -.108E-02 0.164E+01   -.991E-04 0.124E-03 0.290E-01
   0.183E+01 0.598E+00 -.111E+04   -.180E+01 -.596E+00 0.111E+04   -.366E-02 -.445E-02 0.796E+00   0.130E-03 0.128E-03 0.289E-01
   0.204E+01 0.322E+01 -.111E+04   -.207E+01 -.319E+01 0.111E+04   0.234E-01 -.742E-01 0.438E+00   -.895E-04 -.682E-04 0.289E-01
   -.609E+01 -.994E+00 -.112E+04   0.610E+01 0.102E+01 0.112E+04   0.161E-01 -.125E-01 0.416E+00   -.523E-04 -.115E-03 0.289E-01
   0.391E+01 -.783E+01 -.114E+04   -.390E+01 0.778E+01 0.114E+04   -.403E-01 0.127E+00 0.135E+00   0.138E-03 -.960E-04 0.288E-01
   0.276E+01 0.156E+01 -.325E+04   -.275E+01 -.154E+01 0.324E+04   -.246E-01 -.286E-01 0.397E+01   0.545E-04 -.667E-04 0.149E-01
   0.216E+01 0.104E+01 -.324E+04   -.214E+01 -.103E+01 0.323E+04   -.178E-01 -.697E-02 0.381E+01   -.133E-03 -.982E-04 0.151E-01
   -.452E+01 0.719E+00 -.324E+04   0.448E+01 -.715E+00 0.324E+04   0.409E-01 -.791E-02 0.389E+01   0.831E-04 -.960E-04 0.150E-01
   0.118E+01 0.304E+01 -.326E+04   -.114E+01 -.294E+01 0.326E+04   -.487E-01 -.110E+00 0.368E+01   0.714E-04 0.896E-04 0.147E-01
   0.600E+01 0.102E+01 -.328E+04   -.590E+01 -.916E+00 0.327E+04   -.136E+00 -.947E-01 0.346E+01   -.101E-03 0.109E-03 0.144E-01
   -.650E+01 0.198E+01 -.328E+04   0.637E+01 -.191E+01 0.328E+04   0.171E+00 -.686E-01 0.362E+01   0.334E-04 0.947E-04 0.143E-01
   -.654E+00 -.431E+01 -.326E+04   0.673E+00 0.419E+01 0.325E+04   -.152E-01 0.140E+00 0.367E+01   0.695E-04 -.224E-04 0.146E-01
   0.556E+01 -.190E+01 -.328E+04   -.547E+01 0.181E+01 0.328E+04   -.123E+00 0.850E-01 0.348E+01   -.836E-04 -.123E-04 0.142E-01
   -.436E+01 -.232E+01 -.328E+04   0.428E+01 0.224E+01 0.327E+04   0.108E+00 0.744E-01 0.361E+01   0.215E-04 -.261E-05 0.143E-01
 -----------------------------------------------------------------------------------------------
   0.173E-01 0.530E-02 0.306E+00   -.213E-13 -.358E-12 0.455E-11   -.115E-01 0.989E-03 -.108E+01   -.128E-05 0.108E-04 0.778E+00
 
 
 POSITION                                       TOTAL-FORCE (eV/Angst)
 -----------------------------------------------------------------------------------
      1.28340      1.28340      0.00000         0.000793      0.000822      0.011570
      3.85020      1.28340      0.00000        -0.000325     -0.000416      0.010625
      6.41699      1.28340      0.00000        -0.000784      0.000564      0.015980
      1.28340      3.85020      0.00000        -0.001610     -0.000273     -0.000693
      3.85020      3.85020      0.00000         0.001147     -0.000202     -0.007951
      6.41699      3.85020      0.00000        -0.000093     -0.000098      0.004374
      1.28340      6.41699      0.00000         0.000542     -0.001038      0.011145
      3.85020      6.41699      0.00000        -0.000110      0.000102      0.010788
      6.41699      6.41699      0.00000        -0.000931     -0.000599      0.016535
      0.00000      0.00000      1.81500        -0.036595      0.006486      0.095277
      2.56680      0.00000      1.81500         0.013982      0.001668      0.051510
      5.13360      0.00000      1.81500         0.029986      0.004351      0.113104
      0.00000      2.56680      1.81500        -0.037260     -0.045450     -0.001633
      2.56680      2.56680      1.81500        -0.019277     -0.098857     -0.098462
      5.13360      2.56680      1.81500         0.049792     -0.069862     -0.029350
      0.00000      5.13360      1.81500        -0.039517      0.051533     -0.002724
      2.56680      5.13360      1.81500        -0.021711      0.096905     -0.098282
      5.13360      5.13360      1.81500         0.045290      0.075887     -0.028694
      1.28975      1.29021      3.70252         0.004217      0.033233      0.062449
      3.85197      1.29787      3.70839         0.022534     -0.014820      0.053431
      6.42079      1.31262      3.73355        -0.027000     -0.090646     -0.074601
      1.29175      3.85003      3.64159        -0.055259      0.005160      0.449387
      3.83593      3.84940      3.61478         0.081592      0.003548      0.621803
      6.40443      3.85485      3.68585         0.019127     -0.002797      0.238987
      1.28586      6.41206      3.70075         0.001904     -0.036030      0.073785
      3.84707      6.40234      3.70801         0.028377      0.016524      0.054358
      6.41759      6.40105      3.73111        -0.029939      0.080251     -0.074413
      0.01020      0.00861      5.51468        -0.011583     -0.013295      0.017656
      2.57158      7.69627      5.51101         0.002020      0.000503      0.029158
      5.13285      0.00689      5.51822        -0.000002     -0.004121      0.009083
      0.01886      2.58861      5.55782        -0.015561     -0.008296     -0.168323
      2.58306      2.57366      5.59929        -0.038839      0.011230     -0.315609
      5.12447      2.58637      5.60244         0.040142      0.004968     -0.296797
      0.00347      5.12458      5.55327         0.003551      0.012916     -0.159790
      2.56947      5.11725      5.60011        -0.030548     -0.009711     -0.324988
      5.11641      5.12834      5.59375         0.021949     -0.010140     -0.268693
 -----------------------------------------------------------------------------------
    total drift:                                0.005755      0.006300      0.002619


--------------------------------------------------------------------------------------------------------



  FREE ENERGIE OF THE ION-ELECTRON SYSTEM (eV)
  ---------------------------------------------------
  free  energy   TOTEN  =      -108.00241306 eV

  energy  without entropy=     -107.99630963  energy(sigma->0) =     -108.00088720
 


--------------------------------------------------------------------------------------------------------


    POTLOK:  cpu time    0.1088: real time    0.1099


--------------------------------------------------------------------------------------------------------


 stress matrix after NEB project (eV)
     -3.89615     -0.01243     -0.03801
     -0.01243     -3.86853     -0.08030
     -0.03801     -0.08030     -3.46264
  FORCES: max atom, RMS     0.627143    0.177084
  FORCE total and by dimension    1.062506    0.621803
  Stress total and by dimension    6.492414    3.896148
     LOOP+:  cpu time  587.8615: real time  593.0369
 vacuum level on the upper side and lower side of the slab         2.701         5.255
    4ORBIT:  cpu time    0.0000: real time    0.0000

 total amount of memory used by VASP MPI-rank0   144874. kBytes
=======================================================================

   base      :      30000. kBytes
   nonlr-proj:      14881. kBytes
   fftplans  :       6175. kBytes
   grid      :      18948. kBytes
   one-center:        559. kBytes
   wavefun   :      74311. kBytes
 
  
  
 General timing and accounting informations for this job:
 ========================================================
  
                  Total CPU time used (sec):      596.617
                            User time (sec):      594.865
                          System time (sec):        1.752
                         Elapsed time (sec):      602.665
  
                   Maximum memory used (kb):      426004.
                   Average memory used (kb):           0.
  
                          Minor page faults:       317745
                          Major page faults:         1128
                 Voluntary context switches:         2834
