<?xml version="1.0" encoding="ISO-8859-1"?>
<modeling>
 <generator>
  <i name="program" type="string">vasp </i>
  <i name="version" type="string">5.4.4.18Apr17-6-g9f103f2a35  </i>
  <i name="subversion" type="string">(build Mar 06 2021 22:04:06) complex            parallel </i>
  <i name="platform" type="string">LinuxIFC </i>
  <i name="date" type="string">2024 03 06 </i>
  <i name="time" type="string">14:29:20 </i>
 </generator>
 <incar>
  <i type="string" name="PREC">normal</i>
  <i type="string" name="ALGO"> Very_Fast</i>
  <i type="int" name="ISPIN">     1</i>
  <i type="int" name="NELM">   400</i>
  <i type="int" name="IBRION">    -1</i>
  <i name="EDIFF">      0.00001000</i>
  <i name="EDIFFG">     -0.05000000</i>
  <i type="int" name="NSW">     0</i>
  <i type="int" name="ISIF">     2</i>
  <i type="int" name="ISYM">     0</i>
  <i name="SYMPREC">      0.00000000</i>
  <i name="ENCUT">    544.00000000</i>
  <i name="POTIM">      0.50000000</i>
  <i type="string" name="LREAL"> AUTO</i>
  <i type="int" name="ISMEAR">     2</i>
  <i name="SIGMA">      0.20000000</i>
  <i type="logical" name="LWAVE"> F  </i>
  <i type="logical" name="LCHARG"> F  </i>
  <i type="logical" name="LVTOT"> F  </i>
  <i type="logical" name="LVHAR"> T  </i>
  <v type="int" name="KPOINT_BSE">    -1     0     0     0</v>
  <i type="int" name="NELM">   400</i>
  <i type="string" name="GGA"> RP</i>
  <i type="int" name="VOSKOWN">     1</i>
  <i type="logical" name="LDIPOL"> T  </i>
  <i type="int" name="IDIPOL">     3</i>
  <i name="DIP%EFIELD">      0.20000000</i>
 </incar>
 <structure name="primitive_cell" >
  <crystal>
   <varray name="basis" >
    <v>       7.70037500       0.00000000       0.00000000 </v>
    <v>       0.00000000       7.70037500       0.00000000 </v>
    <v>       0.00000000       0.00000000      22.25999800 </v>
   </varray>
   <i name="volume">   1319.92383604 </i>
   <varray name="rec_basis" >
    <v>       0.12986381       0.00000000       0.00000000 </v>
    <v>       0.00000000       0.12986381       0.00000000 </v>
    <v>       0.00000000       0.00000000       0.04492363 </v>
   </varray>
  </crystal>
  <varray name="positions" >
   <v>       0.16666708       0.16666708       0.00000000 </v>
   <v>      -0.16666474       0.16666708       0.00000000 </v>
   <v>       0.16666708      -0.16666474       0.00000000 </v>
   <v>      -0.49999890       0.16666708       0.00000000 </v>
   <v>       0.16666708      -0.49999890       0.00000000 </v>
   <v>       0.00000000       0.00000000       0.08153640 </v>
   <v>       0.33333416       0.00000000       0.08153640 </v>
   <v>       0.00000000       0.33333416       0.08153640 </v>
   <v>       0.33333416       0.33333416       0.08153640 </v>
   <v>      -0.16666474      -0.16666474       0.00000000 </v>
   <v>      -0.49999890      -0.16666474       0.00000000 </v>
   <v>      -0.16666474      -0.49999890       0.00000000 </v>
   <v>      -0.49999890      -0.49999890       0.00000000 </v>
   <v>       0.16749132       0.16755171       0.16633056 </v>
   <v>      -0.33333182       0.00000000       0.08153640 </v>
   <v>       0.00000000      -0.33333182       0.08153640 </v>
   <v>      -0.33333182       0.33333416       0.08153640 </v>
   <v>       0.33333416      -0.33333182       0.08153640 </v>
   <v>       0.16775183       0.49998007       0.16359364 </v>
   <v>       0.16698693      -0.16730575       0.16625136 </v>
   <v>      -0.49976865       0.16854569       0.16659426 </v>
   <v>      -0.16617178       0.17046235       0.16772441 </v>
   <v>       0.49814808       0.49989721       0.16238928 </v>
   <v>      -0.16829583      -0.49939412       0.16558160 </v>
   <v>       0.49959450      -0.16856841       0.16657733 </v>
   <v>      -0.16658682      -0.16873568       0.16761520 </v>
   <v>      -0.33333182      -0.33333182       0.08153640 </v>
   <v>       0.00132513       0.00111748       0.24773960 </v>
   <v>       0.33395555      -0.00053335       0.24757473 </v>
   <v>       0.00244988       0.33616610       0.24967743 </v>
   <v>       0.33544626       0.33422567       0.25154063 </v>
   <v>      -0.33342857       0.00089502       0.24789836 </v>
   <v>       0.00045024      -0.33450267       0.24947307 </v>
   <v>       0.33368154      -0.33545509       0.25157729 </v>
   <v>      -0.33451657       0.33587572       0.25168187 </v>
   <v>      -0.33556392      -0.33401464       0.25129167 </v>
  </varray>
 </structure>
 <varray name="primitive_index" >
  <v type="int" >        1 </v>
  <v type="int" >        3 </v>
  <v type="int" >        7 </v>
  <v type="int" >        2 </v>
  <v type="int" >        4 </v>
  <v type="int" >       10 </v>
  <v type="int" >       11 </v>
  <v type="int" >       13 </v>
  <v type="int" >       14 </v>
  <v type="int" >        9 </v>
  <v type="int" >        8 </v>
  <v type="int" >        6 </v>
  <v type="int" >        5 </v>
  <v type="int" >       19 </v>
  <v type="int" >       12 </v>
  <v type="int" >       16 </v>
  <v type="int" >       15 </v>
  <v type="int" >       17 </v>
  <v type="int" >       22 </v>
  <v type="int" >       25 </v>
  <v type="int" >       20 </v>
  <v type="int" >       21 </v>
  <v type="int" >       23 </v>
  <v type="int" >       24 </v>
  <v type="int" >       26 </v>
  <v type="int" >       27 </v>
  <v type="int" >       18 </v>
  <v type="int" >       28 </v>
  <v type="int" >       29 </v>
  <v type="int" >       31 </v>
  <v type="int" >       32 </v>
  <v type="int" >       30 </v>
  <v type="int" >       34 </v>
  <v type="int" >       35 </v>
  <v type="int" >       33 </v>
  <v type="int" >       36 </v>
 </varray>
 <kpoints>
  <generation param="Monkhorst-Pack">
   <v type="int" name="divisions">       4        4        1 </v>
   <v name="usershift">      0.00000000       0.00000000       0.00000000 </v>
   <v name="genvec1">      0.25000000       0.00000000       0.00000000 </v>
   <v name="genvec2">      0.00000000       0.25000000       0.00000000 </v>
   <v name="genvec3">      0.00000000       0.00000000       1.00000000 </v>
   <v name="shift">      0.50000000       0.50000000       0.00000000 </v>
  </generation>
  <varray name="kpointlist" >
   <v>       0.12500000       0.12500000       0.00000000 </v>
   <v>       0.37500000       0.12500000       0.00000000 </v>
   <v>      -0.37500000       0.12500000       0.00000000 </v>
   <v>      -0.12500000       0.12500000       0.00000000 </v>
   <v>       0.12500000       0.37500000       0.00000000 </v>
   <v>       0.37500000       0.37500000       0.00000000 </v>
   <v>      -0.37500000       0.37500000       0.00000000 </v>
   <v>      -0.12500000       0.37500000       0.00000000 </v>
  </varray>
  <varray name="weights" >
   <v>       0.12500000 </v>
   <v>       0.12500000 </v>
   <v>       0.12500000 </v>
   <v>       0.12500000 </v>
   <v>       0.12500000 </v>
   <v>       0.12500000 </v>
   <v>       0.12500000 </v>
   <v>       0.12500000 </v>
  </varray>
 </kpoints>
 <parameters>
  <separator name="general" >
   <i type="string" name="SYSTEM">unknown system</i>
   <i type="logical" name="LCOMPAT"> F  </i>
  </separator>
  <separator name="electronic" >
   <i type="string" name="PREC">normal</i>
   <i name="ENMAX">    544.00000000</i>
   <i name="ENAUG">    586.98000000</i>
   <i name="EDIFF">      0.00001000</i>
   <i type="int" name="IALGO">    48</i>
   <i type="int" name="IWAVPR">    10</i>
   <i type="int" name="NBANDS">   240</i>
   <i name="NELECT">    396.00000000</i>
   <i type="int" name="TURBO">     0</i>
   <i type="int" name="IRESTART">     0</i>
   <i type="int" name="NREBOOT">     0</i>
   <i type="int" name="NMIN">     0</i>
   <i name="EREF">      0.00000000</i>
   <separator name="electronic smearing" >
    <i type="int" name="ISMEAR">     2</i>
    <i name="SIGMA">      0.20000000</i>
    <i name="KSPACING">      0.50000000</i>
    <i type="logical" name="KGAMMA"> T  </i>
   </separator>
   <separator name="electronic projectors" >
    <i type="logical" name="LREAL"> T  </i>
    <v name="ROPT">     -0.00050000</v>
    <i type="int" name="LMAXPAW">  -100</i>
    <i type="int" name="LMAXMIX">     2</i>
    <i type="logical" name="NLSPLINE"> F  </i>
   </separator>
   <separator name="electronic startup" >
    <i type="int" name="ISTART">     0</i>
    <i type="int" name="ICHARG">     2</i>
    <i type="int" name="INIWAV">     1</i>
   </separator>
   <separator name="electronic spin" >
    <i type="int" name="ISPIN">     1</i>
    <i type="logical" name="LNONCOLLINEAR"> F  </i>
    <v name="MAGMOM">      1.00000000      1.00000000      1.00000000      1.00000000      1.00000000      1.00000000      1.00000000      1.00000000      1.00000000      1.00000000      1.00000000      1.00000000      1.00000000      1.00000000      1.00000000      1.00000000      1.00000000      1.00000000      1.00000000      1.00000000
      1.00000000      1.00000000      1.00000000      1.00000000      1.00000000      1.00000000      1.00000000      1.00000000      1.00000000      1.00000000      1.00000000      1.00000000      1.00000000      1.00000000      1.00000000      1.00000000</v>
    <i name="NUPDOWN">     -1.00000000</i>
    <i type="logical" name="LSORBIT"> F  </i>
    <v name="SAXIS">      0.00000000      0.00000000      1.00000000</v>
    <i type="logical" name="LSPIRAL"> F  </i>
    <v name="QSPIRAL">      0.00000000      0.00000000      0.00000000</v>
    <i type="logical" name="LZEROZ"> F  </i>
   </separator>
   <separator name="electronic exchange-correlation" >
    <i type="logical" name="LASPH"> F  </i>
    <i type="logical" name="LMETAGGA"> F  </i>
   </separator>
   <separator name="electronic convergence" >
    <i type="int" name="NELM">   400</i>
    <i type="int" name="NELMDL">   -12</i>
    <i type="int" name="NELMIN">     2</i>
    <i name="ENINI">    544.00000000</i>
    <separator name="electronic convergence detail" >
     <i type="logical" name="LDIAG"> T  </i>
     <i type="logical" name="LSUBROT"> F  </i>
     <i name="WEIMIN">      0.00000000</i>
     <i name="EBREAK">      0.00000001</i>
     <i name="DEPER">      0.30000000</i>
     <i type="int" name="NRMM">     4</i>
     <i name="TIME">      0.40000000</i>
    </separator>
   </separator>
   <separator name="electronic mixer" >
    <i name="AMIX">      0.40000000</i>
    <i name="BMIX">      1.00000000</i>
    <i name="AMIN">      0.10000000</i>
    <i name="AMIX_MAG">      1.60000000</i>
    <i name="BMIX_MAG">      1.00000000</i>
    <separator name="electronic mixer details" >
     <i type="int" name="IMIX">     4</i>
     <i type="logical" name="MIXFIRST"> F  </i>
     <i type="int" name="MAXMIX">   -45</i>
     <i name="WC">    100.00000000</i>
     <i type="int" name="INIMIX">     1</i>
     <i type="int" name="MIXPRE">     1</i>
     <i type="int" name="MREMOVE">     5</i>
    </separator>
   </separator>
   <separator name="electronic dipolcorrection" >
    <i type="logical" name="LDIPOL"> T  </i>
    <i type="logical" name="LMONO"> F  </i>
    <i type="int" name="IDIPOL">     3</i>
    <i name="EPSILON">      1.00000000</i>
    <v name="DIPOL">   -100.00000000   -100.00000000   -100.00000000</v>
    <i name="EFIELD">      0.20000000</i>
   </separator>
  </separator>
  <separator name="grids" >
   <i type="int" name="NGX">    48</i>
   <i type="int" name="NGY">    48</i>
   <i type="int" name="NGZ">   128</i>
   <i type="int" name="NGXF">    96</i>
   <i type="int" name="NGYF">    96</i>
   <i type="int" name="NGZF">   256</i>
   <i type="logical" name="ADDGRID"> F  </i>
  </separator>
  <separator name="ionic" >
   <i type="int" name="NSW">     0</i>
   <i type="int" name="IBRION">    -1</i>
   <i type="int" name="MDALGO">     0</i>
   <i type="int" name="ISIF">     2</i>
   <i name="PSTRESS">      0.00000000</i>
   <i name="EDIFFG">     -0.05000000</i>
   <i type="int" name="NFREE">     0</i>
   <i name="POTIM">      0.50000000</i>
   <i name="SMASS">     -3.00000000</i>
   <i name="SCALEE">      1.00000000</i>
  </separator>
  <separator name="ionic md" >
   <i name="TEBEG">      0.00010000</i>
   <i name="TEEND">      0.00010000</i>
   <i type="int" name="NBLOCK">     1</i>
   <i type="int" name="KBLOCK">     1</i>
   <i type="int" name="NPACO">   256</i>
   <i name="APACO">     16.00000000</i>
  </separator>
  <separator name="symmetry" >
   <i type="int" name="ISYM">     0</i>
   <i name="SYMPREC">      0.00000000</i>
  </separator>
  <separator name="dos" >
   <i type="int" name="LORBIT">     0</i>
   <v name="RWIGS">     -1.00000000</v>
   <i type="int" name="NEDOS">   301</i>
   <i name="EMIN">     10.00000000</i>
   <i name="EMAX">    -10.00000000</i>
   <i name="EFERMI">      0.00000000</i>
  </separator>
  <separator name="writing" >
   <i type="int" name="NWRITE">     2</i>
   <i type="logical" name="LWAVE"> F  </i>
   <i type="logical" name="LDOWNSAMPLE"> F  </i>
   <i type="logical" name="LCHARG"> F  </i>
   <i type="logical" name="LPARD"> F  </i>
   <i type="logical" name="LVTOT"> F  </i>
   <i type="logical" name="LVHAR"> T  </i>
   <i type="logical" name="LELF"> F  </i>
   <i type="logical" name="LOPTICS"> F  </i>
   <v name="STM">      0.00000000      0.00000000      0.00000000      0.00000000      0.00000000      0.00000000      0.00000000</v>
  </separator>
  <separator name="performance" >
   <i type="int" name="NPAR">    16</i>
   <i type="int" name="NSIM">     4</i>
   <i type="int" name="NBLK">    -1</i>
   <i type="logical" name="LPLANE"> T  </i>
   <i type="logical" name="LSCALAPACK"> T  </i>
   <i type="logical" name="LSCAAWARE"> F  </i>
   <i type="logical" name="LSCALU"> F  </i>
   <i type="logical" name="LASYNC"> F  </i>
   <i type="logical" name="LORBITALREAL"> F  </i>
  </separator>
  <separator name="miscellaneous" >
   <i type="int" name="IDIOT">     3</i>
   <i type="int" name="ISPECIAL">     0</i>
   <i type="logical" name="LMUSIC"> F  </i>
   <v name="POMASS">     63.54600000</v>
   <v name="DARWINR">      0.00000000</v>
   <v name="DARWINV">      1.00000000</v>
   <i type="logical" name="LCORR"> T  </i>
  </separator>
  <i type="logical" name="GGA_COMPAT"> T  </i>
  <i type="logical" name="LBERRY"> F  </i>
  <i type="int" name="ICORELEVEL">     0</i>
  <i type="logical" name="LDAU"> F  </i>
  <i type="int" name="I_CONSTRAINED_M">     0</i>
  <separator name="electronic exchange-correlation" >
   <i type="string" name="GGA">RP</i>
   <i type="int" name="VOSKOWN">     1</i>
   <i type="logical" name="LHFCALC"> F  </i>
   <i type="string" name="PRECFOCK"></i>
   <i type="logical" name="LSYMGRAD"> F  </i>
   <i type="logical" name="LHFONE"> F  </i>
   <i type="logical" name="LRHFCALC"> F  </i>
   <i type="logical" name="LTHOMAS"> F  </i>
   <i type="logical" name="LMODELHF"> F  </i>
   <i name="ENCUT4O">     -1.00000000</i>
   <i type="int" name="EXXOEP">     0</i>
   <i type="int" name="FOURORBIT">     0</i>
   <i name="AEXX">      0.00000000</i>
   <i name="HFALPHA">      0.00000000</i>
   <i name="MCALPHA">      0.00000000</i>
   <i name="ALDAX">      1.00000000</i>
   <i name="AGGAX">      1.00000000</i>
   <i name="ALDAC">      1.00000000</i>
   <i name="AGGAC">      1.00000000</i>
   <i type="int" name="NKREDX">     1</i>
   <i type="int" name="NKREDY">     1</i>
   <i type="int" name="NKREDZ">     1</i>
   <i type="logical" name="SHIFTRED"> F  </i>
   <i type="logical" name="ODDONLY"> F  </i>
   <i type="logical" name="EVENONLY"> F  </i>
   <i type="int" name="LMAXFOCK">     0</i>
   <i type="int" name="NMAXFOCKAE">     0</i>
   <i type="logical" name="LFOCKAEDFT"> F  </i>
   <i name="HFSCREEN">      0.00000000</i>
   <i name="HFSCREENC">      0.00000000</i>
   <i type="int" name="NBANDSGWLOW">     0</i>
  </separator>
  <separator name="vdW DFT" >
   <i type="logical" name="LUSE_VDW"> F  </i>
   <i name="Zab_VDW">     -0.84910000</i>
   <i name="PARAM1">      0.12340000</i>
   <i name="PARAM2">      1.00000000</i>
   <i name="PARAM3">      0.00000000</i>
  </separator>
  <separator name="model GW" >
   <i type="int" name="MODEL_GW">     0</i>
   <i name="MODEL_EPS0">     21.99873060</i>
   <i name="MODEL_ALPHA">      1.00000000</i>
  </separator>
  <separator name="linear response parameters" >
   <i type="logical" name="LEPSILON"> F  </i>
   <i type="logical" name="LRPA"> F  </i>
   <i type="logical" name="LNABLA"> F  </i>
   <i type="logical" name="LVEL"> F  </i>
   <i type="int" name="KINTER">     0</i>
   <i name="CSHIFT">      0.10000000</i>
   <i name="OMEGAMAX">     -1.00000000</i>
   <i name="DEG_THRESHOLD">      0.00200000</i>
   <i name="RTIME">     -0.10000000</i>
   <i name="WPLASMAI">      0.00000000</i>
   <v name="DFIELD">      0.00000000      0.00000000      0.00000000</v>
   <v name="WPLASMA">      0.00000000      0.00000000      0.00000000      0.00000000      0.00000000      0.00000000      0.00000000      0.00000000      0.00000000</v>
  </separator>
  <separator name="orbital magnetization" >
   <i type="logical" name="NUCIND"> F  </i>
   <v name="MAGPOS">      0.00000000      0.00000000      0.00000000</v>
   <i type="logical" name="LNICSALL"> T  </i>
   <i type="logical" name="ORBITALMAG"> F  </i>
   <i type="logical" name="LMAGBLOCH"> F  </i>
   <i type="logical" name="LCHIMAG"> F  </i>
   <i type="logical" name="LGAUGE"> T  </i>
   <i type="int" name="MAGATOM">     0</i>
   <v name="MAGDIPOL">      0.00000000      0.00000000      0.00000000</v>
   <v name="AVECCONST">      0.00000000      0.00000000      0.00000000</v>
  </separator>
  <separator name="response functions" >
   <i type="logical" name="LADDER"> F  </i>
   <i type="logical" name="LRPAFORCE"> F  </i>
   <i type="logical" name="LFXC"> F  </i>
   <i type="logical" name="LHARTREE"> T  </i>
   <i type="int" name="IBSE">     0</i>
   <v type="int" name="KPOINT">    -1     0     0     0</v>
   <i type="logical" name="LTCTE"> F  </i>
   <i type="logical" name="LTETE"> F  </i>
   <i type="logical" name="LTRIPLET"> F  </i>
   <i type="logical" name="LFXCEPS"> F  </i>
   <i type="logical" name="LFXHEG"> F  </i>
   <i type="int" name="NATURALO">     2</i>
   <i type="logical" name="L2ORDER"> F  </i>
   <i type="logical" name="LMP2LT"> F  </i>
   <i type="logical" name="LUSEW"> F  </i>
   <i name="ENCUTGW">     -2.00000000</i>
   <i name="ENCUTGWSOFT">     -2.00000000</i>
   <i name="ENCUTLF">     -1.00000000</i>
   <i type="int" name="LMAXMP2">    -1</i>
   <i name="SCISSOR">      0.00000000</i>
   <i type="int" name="NOMEGA">     0</i>
   <i type="int" name="NOMEGAR">     0</i>
   <i type="int" name="NBANDSGW">    -1</i>
   <i type="int" name="NBANDSO">    -1</i>
   <i type="int" name="NBANDSV">    -1</i>
   <i type="int" name="NELM">   400</i>
   <i type="int" name="NELMHF">     1</i>
   <i type="int" name="DIM">     3</i>
   <i type="int" name="ANTIRES">     0</i>
   <i name="OMEGAMAX">    -30.00000000</i>
   <i name="OMEGAMIN">    -30.00000000</i>
   <i name="OMEGATL">   -200.00000000</i>
   <i type="int" name="OMEGAGRID">   140</i>
   <i name="CSHIFT">     -0.10000000</i>
   <i type="logical" name="SELFENERGY"> F  </i>
   <i type="logical" name="LSPECTRAL"> F  </i>
   <i type="logical" name="LSPECTRALGW"> F  </i>
   <i type="logical" name="LSINGLES"> F  </i>
   <i type="logical" name="LFERMIGW"> F  </i>
   <i type="logical" name="ODDONLYGW"> F  </i>
   <i type="logical" name="EVENONLYGW"> F  </i>
   <i type="int" name="NKREDLFX">     1</i>
   <i type="int" name="NKREDLFY">     1</i>
   <i type="int" name="NKREDLFZ">     1</i>
   <i type="int" name="MAXMEM">  2800</i>
   <i type="int" name="TELESCOPE">     0</i>
   <i type="int" name="TAUPAR">     1</i>
   <i type="int" name="OMEGAPAR">    -1</i>
   <i name="LAMBDA">      1.00000000</i>
  </separator>
  <separator name="External order field" >
   <i name="OFIELD_KAPPA">      0.00000000</i>
   <v name="OFIELD_K">      0.00000000      0.00000000      0.00000000</v>
   <i name="OFIELD_Q6_NEAR">      0.00000000</i>
   <i name="OFIELD_Q6_FAR">      0.00000000</i>
   <i name="OFIELD_A">      0.00000000</i>
  </separator>
  <separator name="solvation model" >
   <i type="logical" name="LSOL"> F  </i>
  </separator>
 </parameters>
 <atominfo>
  <atoms>      36 </atoms>
  <types>       1 </types>
  <array name="atoms" >
   <dimension dim="1">ion</dimension>
   <field type="string">element</field>
   <field type="int">atomtype</field>
   <set>
    <rc><c>Cu</c><c>   1</c></rc>
    <rc><c>Cu</c><c>   1</c></rc>
    <rc><c>Cu</c><c>   1</c></rc>
    <rc><c>Cu</c><c>   1</c></rc>
    <rc><c>Cu</c><c>   1</c></rc>
    <rc><c>Cu</c><c>   1</c></rc>
    <rc><c>Cu</c><c>   1</c></rc>
    <rc><c>Cu</c><c>   1</c></rc>
    <rc><c>Cu</c><c>   1</c></rc>
    <rc><c>Cu</c><c>   1</c></rc>
    <rc><c>Cu</c><c>   1</c></rc>
    <rc><c>Cu</c><c>   1</c></rc>
    <rc><c>Cu</c><c>   1</c></rc>
    <rc><c>Cu</c><c>   1</c></rc>
    <rc><c>Cu</c><c>   1</c></rc>
    <rc><c>Cu</c><c>   1</c></rc>
    <rc><c>Cu</c><c>   1</c></rc>
    <rc><c>Cu</c><c>   1</c></rc>
    <rc><c>Cu</c><c>   1</c></rc>
    <rc><c>Cu</c><c>   1</c></rc>
    <rc><c>Cu</c><c>   1</c></rc>
    <rc><c>Cu</c><c>   1</c></rc>
    <rc><c>Cu</c><c>   1</c></rc>
    <rc><c>Cu</c><c>   1</c></rc>
    <rc><c>Cu</c><c>   1</c></rc>
    <rc><c>Cu</c><c>   1</c></rc>
    <rc><c>Cu</c><c>   1</c></rc>
    <rc><c>Cu</c><c>   1</c></rc>
    <rc><c>Cu</c><c>   1</c></rc>
    <rc><c>Cu</c><c>   1</c></rc>
    <rc><c>Cu</c><c>   1</c></rc>
    <rc><c>Cu</c><c>   1</c></rc>
    <rc><c>Cu</c><c>   1</c></rc>
    <rc><c>Cu</c><c>   1</c></rc>
    <rc><c>Cu</c><c>   1</c></rc>
    <rc><c>Cu</c><c>   1</c></rc>
   </set>
  </array>
  <array name="atomtypes" >
   <dimension dim="1">type</dimension>
   <field type="int">atomspertype</field>
   <field type="string">element</field>
   <field>mass</field>
   <field>valence</field>
   <field type="string">pseudopotential</field>
   <set>
    <rc><c>  36</c><c>Cu</c><c>     63.54600000</c><c>     11.00000000</c><c>  PAW_PBE Cu 22Jun2005                  </c></rc>
   </set>
  </array>
 </atominfo>
 <structure name="initialpos" >
  <crystal>
   <varray name="basis" >
    <v>       7.70037500       0.00000000       0.00000000 </v>
    <v>       0.00000000       7.70037500       0.00000000 </v>
    <v>       0.00000000       0.00000000      22.25999800 </v>
   </varray>
   <i name="volume">   1319.92383604 </i>
   <varray name="rec_basis" >
    <v>       0.12986381       0.00000000       0.00000000 </v>
    <v>       0.00000000       0.12986381       0.00000000 </v>
    <v>       0.00000000       0.00000000       0.04492363 </v>
   </varray>
  </crystal>
  <varray name="positions" >
   <v>       0.16666708       0.16666708       0.00000000 </v>
   <v>       0.50000110       0.16666708       0.00000000 </v>
   <v>       0.83333526       0.16666708       0.00000000 </v>
   <v>       0.16666708       0.50000110       0.00000000 </v>
   <v>       0.50000110       0.50000110       0.00000000 </v>
   <v>       0.83333526       0.50000110       0.00000000 </v>
   <v>       0.16666708       0.83333526       0.00000000 </v>
   <v>       0.50000110       0.83333526       0.00000000 </v>
   <v>       0.83333526       0.83333526       0.00000000 </v>
   <v>       0.00000000       0.00000000       0.08153640 </v>
   <v>       0.33333416       0.00000000       0.08153640 </v>
   <v>       0.66666818       0.00000000       0.08153640 </v>
   <v>       0.00000000       0.33333416       0.08153640 </v>
   <v>       0.33333416       0.33333416       0.08153640 </v>
   <v>       0.66666818       0.33333416       0.08153640 </v>
   <v>       0.00000000       0.66666818       0.08153640 </v>
   <v>       0.33333416       0.66666818       0.08153640 </v>
   <v>       0.66666818       0.66666818       0.08153640 </v>
   <v>       0.16749132       0.16755171       0.16633056 </v>
   <v>       0.50023135       0.16854569       0.16659426 </v>
   <v>       0.83382822       0.17046235       0.16772441 </v>
   <v>       0.16775183       0.49998007       0.16359364 </v>
   <v>       0.49814808       0.49989721       0.16238928 </v>
   <v>       0.83170417       0.50060588       0.16558160 </v>
   <v>       0.16698693       0.83269425       0.16625136 </v>
   <v>       0.49959450       0.83143159       0.16657733 </v>
   <v>       0.83341318       0.83126432       0.16761520 </v>
   <v>       0.00132513       0.00111748       0.24773960 </v>
   <v>       0.33395555       0.99946665       0.24757473 </v>
   <v>       0.66657143       0.00089502       0.24789836 </v>
   <v>       0.00244988       0.33616610       0.24967743 </v>
   <v>       0.33544626       0.33422567       0.25154063 </v>
   <v>       0.66548343       0.33587572       0.25168187 </v>
   <v>       0.00045024       0.66549733       0.24947307 </v>
   <v>       0.33368154       0.66454491       0.25157729 </v>
   <v>       0.66443608       0.66598536       0.25129167 </v>
  </varray>
  <varray name="selective"  type="logical" >
   <v type="logical" >  F  F  F </v>
   <v type="logical" >  F  F  F </v>
   <v type="logical" >  F  F  F </v>
   <v type="logical" >  F  F  F </v>
   <v type="logical" >  F  F  F </v>
   <v type="logical" >  F  F  F </v>
   <v type="logical" >  F  F  F </v>
   <v type="logical" >  F  F  F </v>
   <v type="logical" >  F  F  F </v>
   <v type="logical" >  F  F  F </v>
   <v type="logical" >  F  F  F </v>
   <v type="logical" >  F  F  F </v>
   <v type="logical" >  F  F  F </v>
   <v type="logical" >  F  F  F </v>
   <v type="logical" >  F  F  F </v>
   <v type="logical" >  F  F  F </v>
   <v type="logical" >  F  F  F </v>
   <v type="logical" >  F  F  F </v>
   <v type="logical" >  T  T  T </v>
   <v type="logical" >  T  T  T </v>
   <v type="logical" >  T  T  T </v>
   <v type="logical" >  T  T  T </v>
   <v type="logical" >  T  T  T </v>
   <v type="logical" >  T  T  T </v>
   <v type="logical" >  T  T  T </v>
   <v type="logical" >  T  T  T </v>
   <v type="logical" >  T  T  T </v>
   <v type="logical" >  T  T  T </v>
   <v type="logical" >  T  T  T </v>
   <v type="logical" >  T  T  T </v>
   <v type="logical" >  T  T  T </v>
   <v type="logical" >  T  T  T </v>
   <v type="logical" >  T  T  T </v>
   <v type="logical" >  T  T  T </v>
   <v type="logical" >  T  T  T </v>
   <v type="logical" >  T  T  T </v>
  </varray>
  <nose>
   <v>      -3.00000000       0.00000000       0.00010000       0.00010000 </v>
  </nose>
 </structure>
 <calculation>
  <scstep>
   <time name="diag">    3.47    3.54</time>
   <time name="diis">    6.14    6.25</time>
   <time name="orth">    0.73    0.74</time>
   <time name="total">   10.47   10.66</time>
   <dipole>
    <v name="dipole">      0.00000000       0.00000000       0.00006939 </v>
    <i name="Tr[quadrupol]">  -4128.49377527 </i>
    <i name="Echarged">      0.00000000 </i>
    <i name="Edipol_quadrupol">      0.00000000 </i>
    <i name="Eion">      0.00000000 </i>
   </dipole>
   <energy>
    <i name="alphaZ">    696.18633098 </i>
    <i name="ewald"> 164226.44806453 </i>
    <i name="hartreedc">-212025.95640762 </i>
    <i name="XCdc">   1613.73814842 </i>
    <i name="pawpsdc">  44243.50493509 </i>
    <i name="pawaedc"> -48017.47383163 </i>
    <i name="eentropy">     -0.00891492 </i>
    <i name="bandstr">   2393.55034225 </i>
    <i name="atom">  50037.92390023 </i>
    <i name="e_fr_energy">   3167.91256733 </i>
    <i name="e_wo_entrp">   3167.92148226 </i>
    <i name="e_0_energy">   3167.91479606 </i>
   </energy>
  </scstep>
  <scstep>
   <time name="diag">    3.43    3.47</time>
   <time name="diis">    6.07    6.14</time>
   <time name="orth">    0.71    0.72</time>
   <time name="total">   10.21   10.33</time>
   <dipole>
    <v name="dipole">      0.00000000       0.00000000       0.00006939 </v>
    <i name="Tr[quadrupol]">  -4128.49377527 </i>
    <i name="Echarged">      0.00000000 </i>
    <i name="Edipol_quadrupol">      0.00000000 </i>
    <i name="Eion">      0.00000000 </i>
   </dipole>
   <energy>
    <i name="e_fr_energy">    714.04096448 </i>
    <i name="e_wo_entrp">    714.04944617 </i>
    <i name="e_0_energy">    714.04308490 </i>
   </energy>
  </scstep>
  <scstep>
   <time name="diag">    3.41    3.45</time>
   <time name="diis">    5.96    6.02</time>
   <time name="orth">    0.65    0.65</time>
   <time name="total">   10.01   10.12</time>
   <dipole>
    <v name="dipole">      0.00000000       0.00000000       0.00006939 </v>
    <i name="Tr[quadrupol]">  -4128.49377527 </i>
    <i name="Echarged">      0.00000000 </i>
    <i name="Edipol_quadrupol">      0.00000000 </i>
    <i name="Eion">      0.00000000 </i>
   </dipole>
   <energy>
    <i name="e_fr_energy">    167.62972871 </i>
    <i name="e_wo_entrp">    167.60004636 </i>
    <i name="e_0_energy">    167.62230812 </i>
   </energy>
  </scstep>
  <scstep>
   <time name="diag">    3.42    3.45</time>
   <time name="diis">    6.13    6.19</time>
   <time name="orth">    0.73    0.74</time>
   <time name="total">   10.28   10.38</time>
   <dipole>
    <v name="dipole">      0.00000000       0.00000000       0.00006939 </v>
    <i name="Tr[quadrupol]">  -4128.49377527 </i>
    <i name="Echarged">      0.00000000 </i>
    <i name="Edipol_quadrupol">      0.00000000 </i>
    <i name="Eion">      0.00000000 </i>
   </dipole>
   <energy>
    <i name="e_fr_energy">    -40.56123042 </i>
    <i name="e_wo_entrp">    -40.55868139 </i>
    <i name="e_0_energy">    -40.56059316 </i>
   </energy>
  </scstep>
  <scstep>
   <time name="diag">    3.33    3.36</time>
   <time name="diis">    5.50    5.55</time>
   <time name="orth">    0.74    0.74</time>
   <time name="total">    9.57    9.66</time>
   <dipole>
    <v name="dipole">      0.00000000       0.00000000       0.00006939 </v>
    <i name="Tr[quadrupol]">  -4128.49377527 </i>
    <i name="Echarged">      0.00000000 </i>
    <i name="Edipol_quadrupol">      0.00000000 </i>
    <i name="Eion">      0.00000000 </i>
   </dipole>
   <energy>
    <i name="e_fr_energy">    -91.18438537 </i>
    <i name="e_wo_entrp">    -91.17431511 </i>
    <i name="e_0_energy">    -91.18186780 </i>
   </energy>
  </scstep>
  <scstep>
   <time name="diag">    3.28    3.31</time>
   <time name="diis">    6.10    6.15</time>
   <time name="orth">    0.65    0.66</time>
   <time name="total">   10.03   10.12</time>
   <dipole>
    <v name="dipole">      0.00000000       0.00000000       0.00006939 </v>
    <i name="Tr[quadrupol]">  -4128.49377527 </i>
    <i name="Echarged">      0.00000000 </i>
    <i name="Edipol_quadrupol">      0.00000000 </i>
    <i name="Eion">      0.00000000 </i>
   </dipole>
   <energy>
    <i name="e_fr_energy">   -113.71320416 </i>
    <i name="e_wo_entrp">   -113.72770308 </i>
    <i name="e_0_energy">   -113.71682889 </i>
   </energy>
  </scstep>
  <scstep>
   <time name="diag">    3.23    3.26</time>
   <time name="diis">    5.55    5.60</time>
   <time name="orth">    0.76    0.76</time>
   <time name="total">    9.54    9.63</time>
   <dipole>
    <v name="dipole">      0.00000000       0.00000000       0.00006939 </v>
    <i name="Tr[quadrupol]">  -4128.49377527 </i>
    <i name="Echarged">      0.00000000 </i>
    <i name="Edipol_quadrupol">      0.00000000 </i>
    <i name="Eion">      0.00000000 </i>
   </dipole>
   <energy>
    <i name="e_fr_energy">   -124.57668107 </i>
    <i name="e_wo_entrp">   -124.56969153 </i>
    <i name="e_0_energy">   -124.57493369 </i>
   </energy>
  </scstep>
  <scstep>
   <time name="diag">    3.25    3.28</time>
   <time name="diis">    5.44    5.48</time>
   <time name="orth">    0.73    0.73</time>
   <time name="total">    9.41    9.49</time>
   <dipole>
    <v name="dipole">      0.00000000       0.00000000       0.00006939 </v>
    <i name="Tr[quadrupol]">  -4128.49377527 </i>
    <i name="Echarged">      0.00000000 </i>
    <i name="Edipol_quadrupol">      0.00000000 </i>
    <i name="Eion">      0.00000000 </i>
   </dipole>
   <energy>
    <i name="e_fr_energy">   -129.64605680 </i>
    <i name="e_wo_entrp">   -129.61351990 </i>
    <i name="e_0_energy">   -129.63792257 </i>
   </energy>
  </scstep>
  <scstep>
   <time name="diag">    3.20    3.23</time>
   <time name="diis">   15.78   15.91</time>
   <time name="orth">    0.73    0.74</time>
   <time name="total">   19.72   19.89</time>
   <dipole>
    <v name="dipole">      0.00000000       0.00000000       0.00006939 </v>
    <i name="Tr[quadrupol]">  -4128.49377527 </i>
    <i name="Echarged">      0.00000000 </i>
    <i name="Edipol_quadrupol">      0.00000000 </i>
    <i name="Eion">      0.00000000 </i>
   </dipole>
   <energy>
    <i name="e_fr_energy">   -133.68750835 </i>
    <i name="e_wo_entrp">   -133.65090413 </i>
    <i name="e_0_energy">   -133.67835729 </i>
   </energy>
  </scstep>
  <scstep>
   <time name="diag">    3.15    3.18</time>
   <time name="diis">   14.52   14.65</time>
   <time name="orth">    0.71    0.72</time>
   <time name="total">   18.39   18.54</time>
   <dipole>
    <v name="dipole">      0.00000000       0.00000000       0.00006939 </v>
    <i name="Tr[quadrupol]">  -4128.49377527 </i>
    <i name="Echarged">      0.00000000 </i>
    <i name="Edipol_quadrupol">      0.00000000 </i>
    <i name="Eion">      0.00000000 </i>
   </dipole>
   <energy>
    <i name="e_fr_energy">   -133.83522963 </i>
    <i name="e_wo_entrp">   -133.80149251 </i>
    <i name="e_0_energy">   -133.82679535 </i>
   </energy>
  </scstep>
  <scstep>
   <time name="diag">    3.31    3.34</time>
   <time name="diis">   16.30   16.44</time>
   <time name="orth">    0.75    0.76</time>
   <time name="total">   20.37   20.54</time>
   <dipole>
    <v name="dipole">      0.00000000       0.00000000       0.00006939 </v>
    <i name="Tr[quadrupol]">  -4128.49377527 </i>
    <i name="Echarged">      0.00000000 </i>
    <i name="Edipol_quadrupol">      0.00000000 </i>
    <i name="Eion">      0.00000000 </i>
   </dipole>
   <energy>
    <i name="e_fr_energy">   -133.85867548 </i>
    <i name="e_wo_entrp">   -133.82496051 </i>
    <i name="e_0_energy">   -133.85024674 </i>
   </energy>
  </scstep>
  <scstep>
   <time name="diag">    3.23    3.26</time>
   <time name="diis">   13.72   13.83</time>
   <time name="orth">    0.76    0.76</time>
   <time name="total">   18.53   18.69</time>
   <dipole>
    <v name="dipole">      0.00000000       0.00000000       0.00006939 </v>
    <i name="Tr[quadrupol]">  -4128.49377527 </i>
    <i name="Echarged">      0.00000000 </i>
    <i name="Edipol_quadrupol">      0.00000000 </i>
    <i name="Eion">      0.00000000 </i>
   </dipole>
   <energy>
    <i name="e_fr_energy">   -133.85911978 </i>
    <i name="e_wo_entrp">   -133.82540498 </i>
    <i name="e_0_energy">   -133.85069108 </i>
   </energy>
  </scstep>
  <scstep>
   <time name="diag">    3.14    3.17</time>
   <time name="diis">   14.28   14.40</time>
   <time name="orth">    0.69    0.69</time>
   <time name="total">   19.05   19.21</time>
   <dipole>
    <v name="dipole">      0.00000000       0.00000000       2.71459401 </v>
    <i name="Tr[quadrupol]">  -4129.53371013 </i>
    <i name="Echarged">      0.00000000 </i>
    <i name="Edipol_quadrupol">      0.00000000 </i>
    <i name="Eion">      0.00000000 </i>
   </dipole>
   <energy>
    <i name="e_fr_energy">   -159.30932866 </i>
    <i name="e_wo_entrp">   -159.30878162 </i>
    <i name="e_0_energy">   -159.30919190 </i>
   </energy>
  </scstep>
  <scstep>
   <time name="diag">    3.36    3.39</time>
   <time name="diis">   12.04   12.14</time>
   <time name="orth">    0.73    0.73</time>
   <time name="total">   17.15   17.30</time>
   <dipole>
    <v name="dipole">      0.00000000       0.00000000      -1.22916440 </v>
    <i name="Tr[quadrupol]">  -4130.09987771 </i>
    <i name="Echarged">      0.00000000 </i>
    <i name="Edipol_quadrupol">      0.00000000 </i>
    <i name="Eion">      0.00000000 </i>
   </dipole>
   <energy>
    <i name="e_fr_energy">   -140.40247056 </i>
    <i name="e_wo_entrp">   -140.36860643 </i>
    <i name="e_0_energy">   -140.39400453 </i>
   </energy>
  </scstep>
  <scstep>
   <time name="diag">    3.22    3.25</time>
   <time name="diis">   11.75   11.84</time>
   <time name="orth">    0.74    0.75</time>
   <time name="total">   16.62   16.76</time>
   <dipole>
    <v name="dipole">      0.00000000       0.00000000       0.65860638 </v>
    <i name="Tr[quadrupol]">  -4130.31089623 </i>
    <i name="Echarged">      0.00000000 </i>
    <i name="Edipol_quadrupol">      0.00000000 </i>
    <i name="Eion">      0.00000000 </i>
   </dipole>
   <energy>
    <i name="e_fr_energy">   -112.51043792 </i>
    <i name="e_wo_entrp">   -112.55245991 </i>
    <i name="e_0_energy">   -112.52094342 </i>
   </energy>
  </scstep>
  <scstep>
   <time name="diag">    3.29    3.32</time>
   <time name="diis">   12.21   12.31</time>
   <time name="orth">    0.69    0.70</time>
   <time name="total">   17.18   17.33</time>
   <dipole>
    <v name="dipole">      0.00000000       0.00000000       0.56932736 </v>
    <i name="Tr[quadrupol]">  -4129.75524296 </i>
    <i name="Echarged">      0.00000000 </i>
    <i name="Edipol_quadrupol">      0.00000000 </i>
    <i name="Eion">      0.00000000 </i>
   </dipole>
   <energy>
    <i name="e_fr_energy">   -110.33948984 </i>
    <i name="e_wo_entrp">   -110.37852973 </i>
    <i name="e_0_energy">   -110.34924981 </i>
   </energy>
  </scstep>
  <scstep>
   <time name="diag">    3.20    3.23</time>
   <time name="diis">   10.59   10.68</time>
   <time name="orth">    0.71    0.71</time>
   <time name="total">   15.51   15.64</time>
   <dipole>
    <v name="dipole">      0.00000000       0.00000000       0.55901470 </v>
    <i name="Tr[quadrupol]">  -4130.57033311 </i>
    <i name="Echarged">      0.00000000 </i>
    <i name="Edipol_quadrupol">      0.00000000 </i>
    <i name="Eion">      0.00000000 </i>
   </dipole>
   <energy>
    <i name="e_fr_energy">   -108.21971390 </i>
    <i name="e_wo_entrp">   -108.24413215 </i>
    <i name="e_0_energy">   -108.22581846 </i>
   </energy>
  </scstep>
  <scstep>
   <time name="diag">    3.24    3.26</time>
   <time name="diis">   12.41   12.52</time>
   <time name="orth">    0.74    0.74</time>
   <time name="total">   17.35   17.50</time>
   <dipole>
    <v name="dipole">      0.00000000       0.00000000       0.62496068 </v>
    <i name="Tr[quadrupol]">  -4131.08680653 </i>
    <i name="Echarged">      0.00000000 </i>
    <i name="Edipol_quadrupol">      0.00000000 </i>
    <i name="Eion">      0.00000000 </i>
   </dipole>
   <energy>
    <i name="e_fr_energy">   -108.13137176 </i>
    <i name="e_wo_entrp">   -108.14409916 </i>
    <i name="e_0_energy">   -108.13455361 </i>
   </energy>
  </scstep>
  <scstep>
   <time name="diag">    3.35    3.38</time>
   <time name="diis">   12.98   13.09</time>
   <time name="orth">    0.75    0.76</time>
   <time name="total">   17.91   18.07</time>
   <dipole>
    <v name="dipole">      0.00000000       0.00000000       0.67490739 </v>
    <i name="Tr[quadrupol]">  -4131.62870301 </i>
    <i name="Echarged">      0.00000000 </i>
    <i name="Edipol_quadrupol">      0.00000000 </i>
    <i name="Eion">      0.00000000 </i>
   </dipole>
   <energy>
    <i name="e_fr_energy">   -108.04811328 </i>
    <i name="e_wo_entrp">   -108.05481232 </i>
    <i name="e_0_energy">   -108.04978804 </i>
   </energy>
  </scstep>
  <scstep>
   <time name="diag">    3.35    3.38</time>
   <time name="diis">   11.67   11.77</time>
   <time name="orth">    0.63    0.63</time>
   <time name="total">   16.38   16.52</time>
   <dipole>
    <v name="dipole">      0.00000000       0.00000000       0.64592932 </v>
    <i name="Tr[quadrupol]">  -4132.15953064 </i>
    <i name="Echarged">      0.00000000 </i>
    <i name="Edipol_quadrupol">      0.00000000 </i>
    <i name="Eion">      0.00000000 </i>
   </dipole>
   <energy>
    <i name="e_fr_energy">   -108.03033330 </i>
    <i name="e_wo_entrp">   -108.03501228 </i>
    <i name="e_0_energy">   -108.03150305 </i>
   </energy>
  </scstep>
  <scstep>
   <time name="diag">    2.49    2.51</time>
   <time name="diis">   11.55   11.64</time>
   <time name="orth">    0.73    0.74</time>
   <time name="total">   15.79   15.92</time>
   <dipole>
    <v name="dipole">      0.00000000       0.00000000       0.63431620 </v>
    <i name="Tr[quadrupol]">  -4132.51018116 </i>
    <i name="Echarged">      0.00000000 </i>
    <i name="Edipol_quadrupol">      0.00000000 </i>
    <i name="Eion">      0.00000000 </i>
   </dipole>
   <energy>
    <i name="e_fr_energy">   -108.01672834 </i>
    <i name="e_wo_entrp">   -108.01821356 </i>
    <i name="e_0_energy">   -108.01709964 </i>
   </energy>
  </scstep>
  <scstep>
   <time name="diag">    3.43    3.46</time>
   <time name="diis">   13.52   13.63</time>
   <time name="orth">    0.72    0.72</time>
   <time name="total">   18.71   18.87</time>
   <dipole>
    <v name="dipole">      0.00000000       0.00000000       0.63117633 </v>
    <i name="Tr[quadrupol]">  -4132.88947458 </i>
    <i name="Echarged">      0.00000000 </i>
    <i name="Edipol_quadrupol">      0.00000000 </i>
    <i name="Eion">      0.00000000 </i>
   </dipole>
   <energy>
    <i name="e_fr_energy">   -108.00586704 </i>
    <i name="e_wo_entrp">   -108.00441196 </i>
    <i name="e_0_energy">   -108.00550327 </i>
   </energy>
  </scstep>
  <scstep>
   <time name="diag">    3.42    3.45</time>
   <time name="diis">   13.67   13.79</time>
   <time name="orth">    0.76    0.77</time>
   <time name="total">   18.89   19.05</time>
   <dipole>
    <v name="dipole">      0.00000000       0.00000000       0.61336381 </v>
    <i name="Tr[quadrupol]">  -4133.23868004 </i>
    <i name="Echarged">      0.00000000 </i>
    <i name="Edipol_quadrupol">      0.00000000 </i>
    <i name="Eion">      0.00000000 </i>
   </dipole>
   <energy>
    <i name="e_fr_energy">   -108.00077024 </i>
    <i name="e_wo_entrp">   -107.99742770 </i>
    <i name="e_0_energy">   -107.99993461 </i>
   </energy>
  </scstep>
  <scstep>
   <time name="diag">    3.49    3.52</time>
   <time name="diis">   13.75   13.87</time>
   <time name="orth">    0.71    0.71</time>
   <time name="total">   18.99   19.15</time>
   <dipole>
    <v name="dipole">      0.00000000       0.00000000       0.60091868 </v>
    <i name="Tr[quadrupol]">  -4133.42954670 </i>
    <i name="Echarged">      0.00000000 </i>
    <i name="Edipol_quadrupol">      0.00000000 </i>
    <i name="Eion">      0.00000000 </i>
   </dipole>
   <energy>
    <i name="e_fr_energy">   -107.99930825 </i>
    <i name="e_wo_entrp">   -107.99407216 </i>
    <i name="e_0_energy">   -107.99799923 </i>
   </energy>
  </scstep>
  <scstep>
   <time name="diag">    3.42    3.45</time>
   <time name="diis">   13.84   13.96</time>
   <time name="orth">    0.72    0.72</time>
   <time name="total">   19.03   19.19</time>
   <dipole>
    <v name="dipole">      0.00000000       0.00000000       0.58738952 </v>
    <i name="Tr[quadrupol]">  -4133.63677637 </i>
    <i name="Echarged">      0.00000000 </i>
    <i name="Edipol_quadrupol">      0.00000000 </i>
    <i name="Eion">      0.00000000 </i>
   </dipole>
   <energy>
    <i name="e_fr_energy">   -107.99971564 </i>
    <i name="e_wo_entrp">   -107.99354255 </i>
    <i name="e_0_energy">   -107.99817237 </i>
   </energy>
  </scstep>
  <scstep>
   <time name="diag">    3.15    3.17</time>
   <time name="diis">   12.93   13.04</time>
   <time name="orth">    0.74    0.75</time>
   <time name="total">   17.88   18.03</time>
   <dipole>
    <v name="dipole">      0.00000000       0.00000000       0.55473360 </v>
    <i name="Tr[quadrupol]">  -4134.64036364 </i>
    <i name="Echarged">      0.00000000 </i>
    <i name="Edipol_quadrupol">      0.00000000 </i>
    <i name="Eion">      0.00000000 </i>
   </dipole>
   <energy>
    <i name="e_fr_energy">   -108.00128713 </i>
    <i name="e_wo_entrp">   -107.99505718 </i>
    <i name="e_0_energy">   -107.99972964 </i>
   </energy>
  </scstep>
  <scstep>
   <time name="diag">    3.44    3.47</time>
   <time name="diis">   13.95   14.07</time>
   <time name="orth">    0.75    0.76</time>
   <time name="total">   19.17   19.34</time>
   <dipole>
    <v name="dipole">      0.00000000       0.00000000       0.57973727 </v>
    <i name="Tr[quadrupol]">  -4134.27922361 </i>
    <i name="Echarged">      0.00000000 </i>
    <i name="Edipol_quadrupol">      0.00000000 </i>
    <i name="Eion">      0.00000000 </i>
   </dipole>
   <energy>
    <i name="e_fr_energy">   -108.00183384 </i>
    <i name="e_wo_entrp">   -107.99601878 </i>
    <i name="e_0_energy">   -108.00038008 </i>
   </energy>
  </scstep>
  <scstep>
   <time name="diag">    3.37    3.40</time>
   <time name="diis">   12.56   12.66</time>
   <time name="orth">    0.75    0.76</time>
   <time name="total">   17.71   17.87</time>
   <dipole>
    <v name="dipole">      0.00000000       0.00000000       0.57203818 </v>
    <i name="Tr[quadrupol]">  -4134.91328565 </i>
    <i name="Echarged">      0.00000000 </i>
    <i name="Edipol_quadrupol">      0.00000000 </i>
    <i name="Eion">      0.00000000 </i>
   </dipole>
   <energy>
    <i name="e_fr_energy">   -108.00201381 </i>
    <i name="e_wo_entrp">   -107.99597786 </i>
    <i name="e_0_energy">   -108.00050482 </i>
   </energy>
  </scstep>
  <scstep>
   <time name="diag">    3.50    3.54</time>
   <time name="diis">   10.27   10.35</time>
   <time name="orth">    0.72    0.72</time>
   <time name="total">   15.55   15.68</time>
   <dipole>
    <v name="dipole">      0.00000000       0.00000000       0.57089236 </v>
    <i name="Tr[quadrupol]">  -4134.53871366 </i>
    <i name="Echarged">      0.00000000 </i>
    <i name="Edipol_quadrupol">      0.00000000 </i>
    <i name="Eion">      0.00000000 </i>
   </dipole>
   <energy>
    <i name="e_fr_energy">   -108.00210987 </i>
    <i name="e_wo_entrp">   -107.99600321 </i>
    <i name="e_0_energy">   -108.00058321 </i>
   </energy>
  </scstep>
  <scstep>
   <time name="diag">    3.44    3.47</time>
   <time name="diis">    8.38    8.45</time>
   <time name="orth">    0.75    0.76</time>
   <time name="total">   13.53   13.64</time>
   <dipole>
    <v name="dipole">      0.00000000       0.00000000       0.57110196 </v>
    <i name="Tr[quadrupol]">  -4134.55581538 </i>
    <i name="Echarged">      0.00000000 </i>
    <i name="Edipol_quadrupol">      0.00000000 </i>
    <i name="Eion">      0.00000000 </i>
   </dipole>
   <energy>
    <i name="e_fr_energy">   -108.00223124 </i>
    <i name="e_wo_entrp">   -107.99615647 </i>
    <i name="e_0_energy">   -108.00071254 </i>
   </energy>
  </scstep>
  <scstep>
   <time name="diag">    3.48    3.51</time>
   <time name="diis">    8.39    8.46</time>
   <time name="orth">    0.76    0.76</time>
   <time name="total">   13.67   13.78</time>
   <dipole>
    <v name="dipole">      0.00000000       0.00000000       0.57182868 </v>
    <i name="Tr[quadrupol]">  -4134.56691728 </i>
    <i name="Echarged">      0.00000000 </i>
    <i name="Edipol_quadrupol">      0.00000000 </i>
    <i name="Eion">      0.00000000 </i>
   </dipole>
   <energy>
    <i name="e_fr_energy">   -108.00227622 </i>
    <i name="e_wo_entrp">   -107.99620186 </i>
    <i name="e_0_energy">   -108.00075763 </i>
   </energy>
  </scstep>
  <scstep>
   <time name="diag">    3.42    3.45</time>
   <time name="diis">    7.97    8.03</time>
   <time name="orth">    0.75    0.76</time>
   <time name="total">   13.19   13.30</time>
   <dipole>
    <v name="dipole">      0.00000000       0.00000000       0.57025119 </v>
    <i name="Tr[quadrupol]">  -4134.08664163 </i>
    <i name="Echarged">      0.00000000 </i>
    <i name="Edipol_quadrupol">      0.00000000 </i>
    <i name="Eion">      0.00000000 </i>
   </dipole>
   <energy>
    <i name="e_fr_energy">   -108.00231725 </i>
    <i name="e_wo_entrp">   -107.99620754 </i>
    <i name="e_0_energy">   -108.00078982 </i>
   </energy>
  </scstep>
  <scstep>
   <time name="diag">    3.40    3.43</time>
   <time name="diis">    8.47    8.53</time>
   <time name="orth">    0.76    0.76</time>
   <time name="total">   13.64   13.75</time>
   <dipole>
    <v name="dipole">      0.00000000       0.00000000       0.57204228 </v>
    <i name="Tr[quadrupol]">  -4133.90010482 </i>
    <i name="Echarged">      0.00000000 </i>
    <i name="Edipol_quadrupol">      0.00000000 </i>
    <i name="Eion">      0.00000000 </i>
   </dipole>
   <energy>
    <i name="e_fr_energy">   -108.00233379 </i>
    <i name="e_wo_entrp">   -107.99625580 </i>
    <i name="e_0_energy">   -108.00081429 </i>
   </energy>
  </scstep>
  <scstep>
   <time name="diag">    3.44    3.47</time>
   <time name="diis">    8.68    8.75</time>
   <time name="orth">    0.74    0.74</time>
   <time name="total">   13.89   14.01</time>
   <dipole>
    <v name="dipole">      0.00000000       0.00000000       0.57318364 </v>
    <i name="Tr[quadrupol]">  -4133.90686589 </i>
    <i name="Echarged">      0.00000000 </i>
    <i name="Edipol_quadrupol">      0.00000000 </i>
    <i name="Eion">      0.00000000 </i>
   </dipole>
   <energy>
    <i name="e_fr_energy">   -108.00234814 </i>
    <i name="e_wo_entrp">   -107.99627287 </i>
    <i name="e_0_energy">   -108.00082932 </i>
   </energy>
  </scstep>
  <scstep>
   <time name="diag">    3.41    3.44</time>
   <time name="diis">    8.26    8.33</time>
   <time name="orth">    0.76    0.76</time>
   <time name="total">   13.41   13.51</time>
   <dipole>
    <v name="dipole">      0.00000000       0.00000000       0.57403306 </v>
    <i name="Tr[quadrupol]">  -4133.91489057 </i>
    <i name="Echarged">      0.00000000 </i>
    <i name="Edipol_quadrupol">      0.00000000 </i>
    <i name="Eion">      0.00000000 </i>
   </dipole>
   <energy>
    <i name="e_fr_energy">   -108.00236783 </i>
    <i name="e_wo_entrp">   -107.99628173 </i>
    <i name="e_0_energy">   -108.00084631 </i>
   </energy>
  </scstep>
  <scstep>
   <time name="diag">    3.45    3.48</time>
   <time name="diis">    8.15    8.21</time>
   <time name="orth">    0.75    0.76</time>
   <time name="total">   13.25   13.36</time>
   <dipole>
    <v name="dipole">      0.00000000       0.00000000       0.57545674 </v>
    <i name="Tr[quadrupol]">  -4133.92223726 </i>
    <i name="Echarged">      0.00000000 </i>
    <i name="Edipol_quadrupol">      0.00000000 </i>
    <i name="Eion">      0.00000000 </i>
   </dipole>
   <energy>
    <i name="e_fr_energy">   -108.00239318 </i>
    <i name="e_wo_entrp">   -107.99630614 </i>
    <i name="e_0_energy">   -108.00087142 </i>
   </energy>
  </scstep>
  <scstep>
   <time name="diag">    3.21    3.24</time>
   <time name="diis">    6.64    6.69</time>
   <time name="orth">    0.76    0.76</time>
   <time name="total">   11.63   11.72</time>
   <dipole>
    <v name="dipole">      0.00000000       0.00000000       0.57603107 </v>
    <i name="Tr[quadrupol]">  -4134.02581687 </i>
    <i name="Echarged">      0.00000000 </i>
    <i name="Edipol_quadrupol">      0.00000000 </i>
    <i name="Eion">      0.00000000 </i>
   </dipole>
   <energy>
    <i name="e_fr_energy">   -108.00240491 </i>
    <i name="e_wo_entrp">   -107.99631069 </i>
    <i name="e_0_energy">   -108.00088136 </i>
   </energy>
  </scstep>
  <scstep>
   <time name="diag">    3.48    3.52</time>
   <time name="diis">    6.77    6.82</time>
   <time name="orth">    0.76    0.76</time>
   <time name="total">   11.12   11.21</time>
   <dipole>
    <v name="dipole">      0.00000000       0.00000000       0.57630178 </v>
    <i name="Tr[quadrupol]">  -4134.12893526 </i>
    <i name="Echarged">      0.00000000 </i>
    <i name="Edipol_quadrupol">      0.00000000 </i>
    <i name="Eion">      0.00000000 </i>
   </dipole>
   <energy>
    <i name="alphaZ">    750.63680037 </i>
    <i name="ewald"> 164226.44806453 </i>
    <i name="hartreedc">-211609.74389174 </i>
    <i name="XCdc">   1581.49355703 </i>
    <i name="pawpsdc">  46407.99862764 </i>
    <i name="pawaedc"> -50249.23177621 </i>
    <i name="eentropy">     -0.00610343 </i>
    <i name="bandstr">  -1253.52159148 </i>
    <i name="atom">  50037.92390023 </i>
    <i name="e_fr_energy">   -108.00241306 </i>
    <i name="e_wo_entrp">   -107.99630963 </i>
    <i name="e_0_energy">   -108.00088720 </i>
   </energy>
  </scstep>
  <structure>
   <crystal>
    <varray name="basis" >
     <v>       7.70037500       0.00000000       0.00000000 </v>
     <v>       0.00000000       7.70037500       0.00000000 </v>
     <v>       0.00000000       0.00000000      22.25999800 </v>
    </varray>
    <i name="volume">   1319.92383604 </i>
    <varray name="rec_basis" >
     <v>       0.12986381       0.00000000       0.00000000 </v>
     <v>       0.00000000       0.12986381       0.00000000 </v>
     <v>       0.00000000       0.00000000       0.04492363 </v>
    </varray>
   </crystal>
   <varray name="positions" >
    <v>       0.16666708       0.16666708       0.00000000 </v>
    <v>       0.50000110       0.16666708       0.00000000 </v>
    <v>       0.83333526       0.16666708       0.00000000 </v>
    <v>       0.16666708       0.50000110       0.00000000 </v>
    <v>       0.50000110       0.50000110       0.00000000 </v>
    <v>       0.83333526       0.50000110       0.00000000 </v>
    <v>       0.16666708       0.83333526       0.00000000 </v>
    <v>       0.50000110       0.83333526       0.00000000 </v>
    <v>       0.83333526       0.83333526       0.00000000 </v>
    <v>       0.00000000       0.00000000       0.08153640 </v>
    <v>       0.33333416       0.00000000       0.08153640 </v>
    <v>       0.66666818       0.00000000       0.08153640 </v>
    <v>       0.00000000       0.33333416       0.08153640 </v>
    <v>       0.33333416       0.33333416       0.08153640 </v>
    <v>       0.66666818       0.33333416       0.08153640 </v>
    <v>       0.00000000       0.66666818       0.08153640 </v>
    <v>       0.33333416       0.66666818       0.08153640 </v>
    <v>       0.66666818       0.66666818       0.08153640 </v>
    <v>       0.16749132       0.16755171       0.16633056 </v>
    <v>       0.50023135       0.16854569       0.16659426 </v>
    <v>       0.83382822       0.17046235       0.16772441 </v>
    <v>       0.16775183       0.49998007       0.16359364 </v>
    <v>       0.49814808       0.49989721       0.16238928 </v>
    <v>       0.83170417       0.50060588       0.16558160 </v>
    <v>       0.16698693       0.83269425       0.16625136 </v>
    <v>       0.49959450       0.83143159       0.16657733 </v>
    <v>       0.83341318       0.83126432       0.16761520 </v>
    <v>       0.00132513       0.00111748       0.24773960 </v>
    <v>       0.33395555       0.99946665       0.24757473 </v>
    <v>       0.66657143       0.00089502       0.24789836 </v>
    <v>       0.00244988       0.33616610       0.24967743 </v>
    <v>       0.33544626       0.33422567       0.25154063 </v>
    <v>       0.66548343       0.33587572       0.25168187 </v>
    <v>       0.00045024       0.66549733       0.24947307 </v>
    <v>       0.33368154       0.66454491       0.25157729 </v>
    <v>       0.66443608       0.66598536       0.25129167 </v>
   </varray>
  </structure>
  <varray name="forces" >
   <v>       0.00079314       0.00082194       0.01156997 </v>
   <v>      -0.00032470      -0.00041627       0.01062482 </v>
   <v>      -0.00078402       0.00056434       0.01597991 </v>
   <v>      -0.00161021      -0.00027295      -0.00069279 </v>
   <v>       0.00114696      -0.00020163      -0.00795088 </v>
   <v>      -0.00009284      -0.00009821       0.00437372 </v>
   <v>       0.00054155      -0.00103802       0.01114529 </v>
   <v>      -0.00010954       0.00010202       0.01078778 </v>
   <v>      -0.00093140      -0.00059889       0.01653549 </v>
   <v>      -0.03659542       0.00648639       0.09527713 </v>
   <v>       0.01398168       0.00166797       0.05150993 </v>
   <v>       0.02998592       0.00435059       0.11310388 </v>
   <v>      -0.03725954      -0.04544966      -0.00163299 </v>
   <v>      -0.01927687      -0.09885735      -0.09846235 </v>
   <v>       0.04979212      -0.06986205      -0.02934985 </v>
   <v>      -0.03951724       0.05153266      -0.00272443 </v>
   <v>      -0.02171135       0.09690491      -0.09828223 </v>
   <v>       0.04528981       0.07588679      -0.02869419 </v>
   <v>       0.00421717       0.03323321       0.06244907 </v>
   <v>       0.02253387      -0.01482048       0.05343051 </v>
   <v>      -0.02700034      -0.09064636      -0.07460080 </v>
   <v>      -0.05525894       0.00515972       0.44938720 </v>
   <v>       0.08159186       0.00354843       0.62180266 </v>
   <v>       0.01912692      -0.00279727       0.23898674 </v>
   <v>       0.00190416      -0.03603014       0.07378488 </v>
   <v>       0.02837656       0.01652413       0.05435751 </v>
   <v>      -0.02993892       0.08025134      -0.07441337 </v>
   <v>      -0.01158289      -0.01329455       0.01765565 </v>
   <v>       0.00201980       0.00050261       0.02915839 </v>
   <v>      -0.00000224      -0.00412075       0.00908331 </v>
   <v>      -0.01556115      -0.00829556      -0.16832262 </v>
   <v>      -0.03883895       0.01123036      -0.31560941 </v>
   <v>       0.04014244       0.00496778      -0.29679710 </v>
   <v>       0.00355106       0.01291597      -0.15979031 </v>
   <v>      -0.03054765      -0.00971055      -0.32498777 </v>
   <v>       0.02194917      -0.01014047      -0.26869276 </v>
  </varray>
  <varray name="stress" >
   <v>      -4.72930307      -0.01508479      -0.04613455 </v>
   <v>      -0.01508443      -4.69577903      -0.09747184 </v>
   <v>      -0.04613488      -0.09747197      -4.20308866 </v>
  </varray>
  <energy>
   <i name="e_fr_energy">   -108.00241306 </i>
   <i name="e_wo_entrp">   -108.00088720 </i>
   <i name="e_0_energy">     -0.00610343 </i>
  </energy>
  <time name="totalsc">  587.86  593.04</time>
  <eigenvalues>
   <array>
    <dimension dim="1">band</dimension>
    <dimension dim="2">kpoint</dimension>
    <dimension dim="3">spin</dimension>
    <field>eigene</field>
    <field>occ</field>
    <set>
     <set comment="spin 1">
      <set comment="kpoint 1">
       <r>   -8.8743    1.0000 </r>
       <r>   -7.3278    1.0000 </r>
       <r>   -7.0499    1.0000 </r>
       <r>   -7.0437    1.0000 </r>
       <r>   -6.0658    1.0000 </r>
       <r>   -6.0596    1.0000 </r>
       <r>   -5.8130    1.0000 </r>
       <r>   -5.8062    1.0000 </r>
       <r>   -5.6125    1.0000 </r>
       <r>   -5.4337    1.0000 </r>
       <r>   -5.3001    1.0000 </r>
       <r>   -5.2935    1.0000 </r>
       <r>   -5.0814    1.0000 </r>
       <r>   -5.0792    1.0000 </r>
       <r>   -4.9808    1.0000 </r>
       <r>   -4.8994    1.0000 </r>
       <r>   -4.6814    1.0000 </r>
       <r>   -4.6552    1.0000 </r>
       <r>   -4.6455    1.0000 </r>
       <r>   -4.6253    1.0000 </r>
       <r>   -4.6181    1.0000 </r>
       <r>   -4.5716    1.0000 </r>
       <r>   -4.5017    1.0000 </r>
       <r>   -4.4427    1.0000 </r>
       <r>   -4.4413    1.0000 </r>
       <r>   -4.3798    1.0000 </r>
       <r>   -4.3663    1.0000 </r>
       <r>   -4.3622    1.0000 </r>
       <r>   -4.3272    1.0000 </r>
       <r>   -4.3221    1.0000 </r>
       <r>   -4.3159    1.0000 </r>
       <r>   -4.3053    1.0000 </r>
       <r>   -4.2983    1.0000 </r>
       <r>   -4.2309    1.0000 </r>
       <r>   -4.2252    1.0000 </r>
       <r>   -4.2220    1.0000 </r>
       <r>   -4.2159    1.0000 </r>
       <r>   -4.2069    1.0000 </r>
       <r>   -4.1271    1.0000 </r>
       <r>   -4.1232    1.0000 </r>
       <r>   -4.0749    1.0000 </r>
       <r>   -4.0590    1.0000 </r>
       <r>   -4.0345    1.0000 </r>
       <r>   -4.0280    1.0000 </r>
       <r>   -3.9407    1.0000 </r>
       <r>   -3.8302    1.0000 </r>
       <r>   -3.8268    1.0000 </r>
       <r>   -3.8161    1.0000 </r>
       <r>   -3.8102    1.0000 </r>
       <r>   -3.7777    1.0000 </r>
       <r>   -3.7506    1.0000 </r>
       <r>   -3.7300    1.0000 </r>
       <r>   -3.7234    1.0000 </r>
       <r>   -3.7213    1.0000 </r>
       <r>   -3.6787    1.0000 </r>
       <r>   -3.6120    1.0000 </r>
       <r>   -3.6104    1.0000 </r>
       <r>   -3.5910    1.0000 </r>
       <r>   -3.5514    1.0000 </r>
       <r>   -3.5476    1.0000 </r>
       <r>   -3.5426    1.0000 </r>
       <r>   -3.5193    1.0000 </r>
       <r>   -3.4986    1.0000 </r>
       <r>   -3.4928    1.0000 </r>
       <r>   -3.4895    1.0000 </r>
       <r>   -3.4749    1.0000 </r>
       <r>   -3.4671    1.0000 </r>
       <r>   -3.4620    1.0000 </r>
       <r>   -3.4108    1.0000 </r>
       <r>   -3.4081    1.0000 </r>
       <r>   -3.4027    1.0000 </r>
       <r>   -3.3063    1.0000 </r>
       <r>   -3.2968    1.0000 </r>
       <r>   -3.2859    1.0000 </r>
       <r>   -3.2772    1.0000 </r>
       <r>   -3.2501    1.0000 </r>
       <r>   -3.2370    1.0000 </r>
       <r>   -3.2318    1.0000 </r>
       <r>   -3.1970    1.0000 </r>
       <r>   -3.1920    1.0000 </r>
       <r>   -3.1831    1.0000 </r>
       <r>   -3.1752    1.0000 </r>
       <r>   -3.1697    1.0000 </r>
       <r>   -3.1647    1.0000 </r>
       <r>   -3.1478    1.0000 </r>
       <r>   -3.1447    1.0000 </r>
       <r>   -3.1396    1.0000 </r>
       <r>   -3.1349    1.0000 </r>
       <r>   -3.1315    1.0000 </r>
       <r>   -3.1210    1.0000 </r>
       <r>   -3.1121    1.0000 </r>
       <r>   -3.1030    1.0000 </r>
       <r>   -3.0946    1.0000 </r>
       <r>   -3.0813    1.0000 </r>
       <r>   -3.0651    1.0000 </r>
       <r>   -3.0611    1.0000 </r>
       <r>   -3.0156    1.0000 </r>
       <r>   -3.0116    1.0000 </r>
       <r>   -2.9652    1.0000 </r>
       <r>   -2.9141    1.0000 </r>
       <r>   -2.9116    1.0000 </r>
       <r>   -2.8794    1.0000 </r>
       <r>   -2.8729    1.0000 </r>
       <r>   -2.7683    1.0000 </r>
       <r>   -2.7580    1.0000 </r>
       <r>   -2.7518    1.0000 </r>
       <r>   -2.7489    1.0000 </r>
       <r>   -2.7192    1.0000 </r>
       <r>   -2.7130    1.0000 </r>
       <r>   -2.7013    1.0000 </r>
       <r>   -2.6962    1.0000 </r>
       <r>   -2.6818    1.0000 </r>
       <r>   -2.6569    1.0000 </r>
       <r>   -2.6551    1.0000 </r>
       <r>   -2.6500    1.0000 </r>
       <r>   -2.6454    1.0000 </r>
       <r>   -2.6214    1.0000 </r>
       <r>   -2.6179    1.0000 </r>
       <r>   -2.6148    1.0000 </r>
       <r>   -2.6109    1.0000 </r>
       <r>   -2.5975    1.0000 </r>
       <r>   -2.5928    1.0000 </r>
       <r>   -2.5714    1.0000 </r>
       <r>   -2.5509    1.0000 </r>
       <r>   -2.5454    1.0000 </r>
       <r>   -2.5423    1.0000 </r>
       <r>   -2.5387    1.0000 </r>
       <r>   -2.5248    1.0000 </r>
       <r>   -2.5235    1.0000 </r>
       <r>   -2.5190    1.0000 </r>
       <r>   -2.5156    1.0000 </r>
       <r>   -2.5114    1.0000 </r>
       <r>   -2.5072    1.0000 </r>
       <r>   -2.5053    1.0000 </r>
       <r>   -2.4899    1.0000 </r>
       <r>   -2.4870    1.0000 </r>
       <r>   -2.4440    1.0000 </r>
       <r>   -2.4271    1.0000 </r>
       <r>   -2.3944    1.0000 </r>
       <r>   -2.3689    1.0000 </r>
       <r>   -2.3606    1.0000 </r>
       <r>   -2.3550    1.0000 </r>
       <r>   -2.3373    1.0000 </r>
       <r>   -2.3254    1.0000 </r>
       <r>   -2.3216    1.0000 </r>
       <r>   -2.3215    1.0000 </r>
       <r>   -2.3189    1.0000 </r>
       <r>   -2.3163    1.0000 </r>
       <r>   -2.3136    1.0000 </r>
       <r>   -2.3025    1.0000 </r>
       <r>   -2.2761    1.0000 </r>
       <r>   -2.2743    1.0000 </r>
       <r>   -2.2268    1.0000 </r>
       <r>   -2.1955    1.0000 </r>
       <r>   -2.1935    1.0000 </r>
       <r>   -2.1846    1.0000 </r>
       <r>   -2.1829    1.0000 </r>
       <r>   -2.1733    1.0000 </r>
       <r>   -2.1697    1.0000 </r>
       <r>   -2.1594    1.0000 </r>
       <r>   -2.1527    1.0000 </r>
       <r>   -2.1508    1.0000 </r>
       <r>   -2.1491    1.0000 </r>
       <r>   -2.1476    1.0000 </r>
       <r>   -2.1461    1.0000 </r>
       <r>   -2.1376    1.0000 </r>
       <r>   -2.1351    1.0000 </r>
       <r>   -2.1330    1.0000 </r>
       <r>   -2.1087    1.0000 </r>
       <r>   -2.1069    1.0000 </r>
       <r>   -2.0710    1.0000 </r>
       <r>   -2.0683    1.0000 </r>
       <r>   -2.0667    1.0000 </r>
       <r>   -2.0618    1.0000 </r>
       <r>   -2.0589    1.0000 </r>
       <r>   -2.0218    1.0000 </r>
       <r>   -1.9869    1.0000 </r>
       <r>   -1.9855    1.0000 </r>
       <r>   -1.9831    1.0000 </r>
       <r>   -1.9796    1.0000 </r>
       <r>   -1.9753    1.0000 </r>
       <r>   -1.9702    1.0000 </r>
       <r>   -1.9674    1.0000 </r>
       <r>   -1.9534    1.0000 </r>
       <r>   -1.9331    1.0000 </r>
       <r>   -1.9263    1.0000 </r>
       <r>   -1.9236    1.0000 </r>
       <r>   -1.9224    1.0000 </r>
       <r>   -1.9131    1.0000 </r>
       <r>   -1.9093    1.0000 </r>
       <r>   -1.9036    1.0000 </r>
       <r>   -1.8604    1.0000 </r>
       <r>   -1.4405    1.0000 </r>
       <r>   -1.4371    1.0000 </r>
       <r>   -1.1815    1.0000 </r>
       <r>   -1.1801    1.0000 </r>
       <r>   -1.1021    0.9999 </r>
       <r>   -0.8246    0.9969 </r>
       <r>   -0.7161    1.0311 </r>
       <r>   -0.4885    0.6380 </r>
       <r>   -0.4844    0.6172 </r>
       <r>   -0.2155   -0.0347 </r>
       <r>   -0.2096   -0.0319 </r>
       <r>    0.6456    0.0000 </r>
       <r>    0.7239    0.0000 </r>
       <r>    0.8319    0.0000 </r>
       <r>    1.2133    0.0000 </r>
       <r>    1.2194    0.0000 </r>
       <r>    1.6554    0.0000 </r>
       <r>    1.6571    0.0000 </r>
       <r>    1.7556    0.0000 </r>
       <r>    1.7673    0.0000 </r>
       <r>    2.9715    0.0000 </r>
       <r>    3.0350    0.0000 </r>
       <r>    3.0391    0.0000 </r>
       <r>    3.1714    0.0000 </r>
       <r>    3.2089    0.0000 </r>
       <r>    3.3694    0.0000 </r>
       <r>    3.3751    0.0000 </r>
       <r>    3.5152    0.0000 </r>
       <r>    3.5572    0.0000 </r>
       <r>    3.5626    0.0000 </r>
       <r>    3.6887    0.0000 </r>
       <r>    3.6915    0.0000 </r>
       <r>    4.1861    0.0000 </r>
       <r>    4.4087    0.0000 </r>
       <r>    4.4101    0.0000 </r>
       <r>    4.7074    0.0000 </r>
       <r>    4.7102    0.0000 </r>
       <r>    4.8525    0.0000 </r>
       <r>    5.0567    0.0000 </r>
       <r>    5.0615    0.0000 </r>
       <r>    5.1482    0.0000 </r>
       <r>    5.1499    0.0000 </r>
       <r>    5.2076    0.0000 </r>
       <r>    5.2105    0.0000 </r>
       <r>    5.3582    0.0000 </r>
       <r>    5.3782    0.0000 </r>
       <r>    5.4729    0.0000 </r>
       <r>    5.5656    0.0000 </r>
      </set>
      <set comment="kpoint 2">
       <r>   -8.5498    1.0000 </r>
       <r>   -7.9216    1.0000 </r>
       <r>   -7.0281    1.0000 </r>
       <r>   -6.7614    1.0000 </r>
       <r>   -6.4761    1.0000 </r>
       <r>   -6.2407    1.0000 </r>
       <r>   -5.8231    1.0000 </r>
       <r>   -5.5559    1.0000 </r>
       <r>   -5.4318    1.0000 </r>
       <r>   -5.2890    1.0000 </r>
       <r>   -5.1943    1.0000 </r>
       <r>   -5.1234    1.0000 </r>
       <r>   -5.0965    1.0000 </r>
       <r>   -5.0861    1.0000 </r>
       <r>   -4.8435    1.0000 </r>
       <r>   -4.8162    1.0000 </r>
       <r>   -4.8101    1.0000 </r>
       <r>   -4.7533    1.0000 </r>
       <r>   -4.7458    1.0000 </r>
       <r>   -4.7067    1.0000 </r>
       <r>   -4.5935    1.0000 </r>
       <r>   -4.5493    1.0000 </r>
       <r>   -4.5355    1.0000 </r>
       <r>   -4.5047    1.0000 </r>
       <r>   -4.4629    1.0000 </r>
       <r>   -4.4396    1.0000 </r>
       <r>   -4.4200    1.0000 </r>
       <r>   -4.4076    1.0000 </r>
       <r>   -4.4016    1.0000 </r>
       <r>   -4.3729    1.0000 </r>
       <r>   -4.3489    1.0000 </r>
       <r>   -4.3385    1.0000 </r>
       <r>   -4.2579    1.0000 </r>
       <r>   -4.2483    1.0000 </r>
       <r>   -4.1707    1.0000 </r>
       <r>   -4.1594    1.0000 </r>
       <r>   -4.1356    1.0000 </r>
       <r>   -4.1318    1.0000 </r>
       <r>   -4.0712    1.0000 </r>
       <r>   -4.0649    1.0000 </r>
       <r>   -4.0447    1.0000 </r>
       <r>   -4.0208    1.0000 </r>
       <r>   -4.0029    1.0000 </r>
       <r>   -3.9465    1.0000 </r>
       <r>   -3.9417    1.0000 </r>
       <r>   -3.9324    1.0000 </r>
       <r>   -3.8811    1.0000 </r>
       <r>   -3.8410    1.0000 </r>
       <r>   -3.8359    1.0000 </r>
       <r>   -3.8118    1.0000 </r>
       <r>   -3.8077    1.0000 </r>
       <r>   -3.7489    1.0000 </r>
       <r>   -3.7123    1.0000 </r>
       <r>   -3.6899    1.0000 </r>
       <r>   -3.6772    1.0000 </r>
       <r>   -3.6633    1.0000 </r>
       <r>   -3.6480    1.0000 </r>
       <r>   -3.6349    1.0000 </r>
       <r>   -3.5992    1.0000 </r>
       <r>   -3.5895    1.0000 </r>
       <r>   -3.5695    1.0000 </r>
       <r>   -3.5651    1.0000 </r>
       <r>   -3.5512    1.0000 </r>
       <r>   -3.5504    1.0000 </r>
       <r>   -3.5281    1.0000 </r>
       <r>   -3.5217    1.0000 </r>
       <r>   -3.5025    1.0000 </r>
       <r>   -3.4369    1.0000 </r>
       <r>   -3.3964    1.0000 </r>
       <r>   -3.3699    1.0000 </r>
       <r>   -3.3529    1.0000 </r>
       <r>   -3.3503    1.0000 </r>
       <r>   -3.3351    1.0000 </r>
       <r>   -3.3189    1.0000 </r>
       <r>   -3.2740    1.0000 </r>
       <r>   -3.2503    1.0000 </r>
       <r>   -3.2279    1.0000 </r>
       <r>   -3.2249    1.0000 </r>
       <r>   -3.2150    1.0000 </r>
       <r>   -3.2097    1.0000 </r>
       <r>   -3.2030    1.0000 </r>
       <r>   -3.1975    1.0000 </r>
       <r>   -3.1912    1.0000 </r>
       <r>   -3.1803    1.0000 </r>
       <r>   -3.1713    1.0000 </r>
       <r>   -3.1541    1.0000 </r>
       <r>   -3.1447    1.0000 </r>
       <r>   -3.1389    1.0000 </r>
       <r>   -3.1166    1.0000 </r>
       <r>   -3.1100    1.0000 </r>
       <r>   -3.1028    1.0000 </r>
       <r>   -3.0908    1.0000 </r>
       <r>   -3.0754    1.0000 </r>
       <r>   -3.0421    1.0000 </r>
       <r>   -3.0336    1.0000 </r>
       <r>   -3.0047    1.0000 </r>
       <r>   -2.9842    1.0000 </r>
       <r>   -2.9768    1.0000 </r>
       <r>   -2.9205    1.0000 </r>
       <r>   -2.9118    1.0000 </r>
       <r>   -2.8719    1.0000 </r>
       <r>   -2.8681    1.0000 </r>
       <r>   -2.8568    1.0000 </r>
       <r>   -2.8545    1.0000 </r>
       <r>   -2.8468    1.0000 </r>
       <r>   -2.8453    1.0000 </r>
       <r>   -2.8257    1.0000 </r>
       <r>   -2.8194    1.0000 </r>
       <r>   -2.8102    1.0000 </r>
       <r>   -2.7894    1.0000 </r>
       <r>   -2.7744    1.0000 </r>
       <r>   -2.7623    1.0000 </r>
       <r>   -2.7382    1.0000 </r>
       <r>   -2.7336    1.0000 </r>
       <r>   -2.7123    1.0000 </r>
       <r>   -2.7061    1.0000 </r>
       <r>   -2.7028    1.0000 </r>
       <r>   -2.6993    1.0000 </r>
       <r>   -2.6807    1.0000 </r>
       <r>   -2.6683    1.0000 </r>
       <r>   -2.6533    1.0000 </r>
       <r>   -2.6489    1.0000 </r>
       <r>   -2.6243    1.0000 </r>
       <r>   -2.6197    1.0000 </r>
       <r>   -2.6102    1.0000 </r>
       <r>   -2.5536    1.0000 </r>
       <r>   -2.5278    1.0000 </r>
       <r>   -2.5056    1.0000 </r>
       <r>   -2.4998    1.0000 </r>
       <r>   -2.4963    1.0000 </r>
       <r>   -2.4786    1.0000 </r>
       <r>   -2.4727    1.0000 </r>
       <r>   -2.4528    1.0000 </r>
       <r>   -2.4411    1.0000 </r>
       <r>   -2.4366    1.0000 </r>
       <r>   -2.4342    1.0000 </r>
       <r>   -2.4252    1.0000 </r>
       <r>   -2.4185    1.0000 </r>
       <r>   -2.4017    1.0000 </r>
       <r>   -2.3926    1.0000 </r>
       <r>   -2.3858    1.0000 </r>
       <r>   -2.3850    1.0000 </r>
       <r>   -2.3746    1.0000 </r>
       <r>   -2.3713    1.0000 </r>
       <r>   -2.3550    1.0000 </r>
       <r>   -2.3460    1.0000 </r>
       <r>   -2.3274    1.0000 </r>
       <r>   -2.3209    1.0000 </r>
       <r>   -2.2905    1.0000 </r>
       <r>   -2.2856    1.0000 </r>
       <r>   -2.2794    1.0000 </r>
       <r>   -2.2485    1.0000 </r>
       <r>   -2.2309    1.0000 </r>
       <r>   -2.2257    1.0000 </r>
       <r>   -2.2163    1.0000 </r>
       <r>   -2.2125    1.0000 </r>
       <r>   -2.1785    1.0000 </r>
       <r>   -2.1730    1.0000 </r>
       <r>   -2.1538    1.0000 </r>
       <r>   -2.1488    1.0000 </r>
       <r>   -2.1472    1.0000 </r>
       <r>   -2.1390    1.0000 </r>
       <r>   -2.1315    1.0000 </r>
       <r>   -2.1282    1.0000 </r>
       <r>   -2.1228    1.0000 </r>
       <r>   -2.1098    1.0000 </r>
       <r>   -2.0902    1.0000 </r>
       <r>   -2.0889    1.0000 </r>
       <r>   -2.0872    1.0000 </r>
       <r>   -2.0859    1.0000 </r>
       <r>   -2.0757    1.0000 </r>
       <r>   -2.0661    1.0000 </r>
       <r>   -2.0625    1.0000 </r>
       <r>   -2.0569    1.0000 </r>
       <r>   -2.0424    1.0000 </r>
       <r>   -2.0225    1.0000 </r>
       <r>   -2.0032    1.0000 </r>
       <r>   -1.9957    1.0000 </r>
       <r>   -1.9824    1.0000 </r>
       <r>   -1.9787    1.0000 </r>
       <r>   -1.9695    1.0000 </r>
       <r>   -1.9387    1.0000 </r>
       <r>   -1.9295    1.0000 </r>
       <r>   -1.9257    1.0000 </r>
       <r>   -1.9106    1.0000 </r>
       <r>   -1.8873    1.0000 </r>
       <r>   -1.8339    1.0000 </r>
       <r>   -1.7985    1.0000 </r>
       <r>   -1.7692    1.0000 </r>
       <r>   -1.7124    1.0000 </r>
       <r>   -1.6722    1.0000 </r>
       <r>   -1.6058    1.0000 </r>
       <r>   -1.5361    1.0000 </r>
       <r>   -1.1834    1.0000 </r>
       <r>   -1.0928    0.9999 </r>
       <r>   -0.9593    0.9978 </r>
       <r>   -0.7877    1.0031 </r>
       <r>   -0.3609    0.0580 </r>
       <r>   -0.1814   -0.0187 </r>
       <r>   -0.1716   -0.0146 </r>
       <r>   -0.0927    0.0037 </r>
       <r>    0.0092    0.0031 </r>
       <r>    0.1518    0.0002 </r>
       <r>    0.3498    0.0000 </r>
       <r>    0.5831    0.0000 </r>
       <r>    0.7821    0.0000 </r>
       <r>    1.1587    0.0000 </r>
       <r>    1.3013    0.0000 </r>
       <r>    1.5737    0.0000 </r>
       <r>    1.5856    0.0000 </r>
       <r>    2.0734    0.0000 </r>
       <r>    2.1675    0.0000 </r>
       <r>    2.2168    0.0000 </r>
       <r>    2.2618    0.0000 </r>
       <r>    2.2731    0.0000 </r>
       <r>    2.5990    0.0000 </r>
       <r>    2.7181    0.0000 </r>
       <r>    2.8000    0.0000 </r>
       <r>    3.2497    0.0000 </r>
       <r>    3.2567    0.0000 </r>
       <r>    3.5299    0.0000 </r>
       <r>    3.6613    0.0000 </r>
       <r>    3.6934    0.0000 </r>
       <r>    3.7443    0.0000 </r>
       <r>    3.9016    0.0000 </r>
       <r>    3.9817    0.0000 </r>
       <r>    4.1684    0.0000 </r>
       <r>    4.4520    0.0000 </r>
       <r>    4.4936    0.0000 </r>
       <r>    4.5323    0.0000 </r>
       <r>    4.5456    0.0000 </r>
       <r>    4.8479    0.0000 </r>
       <r>    4.9992    0.0000 </r>
       <r>    5.0682    0.0000 </r>
       <r>    5.1047    0.0000 </r>
       <r>    5.1812    0.0000 </r>
       <r>    5.3420    0.0000 </r>
       <r>    5.4572    0.0000 </r>
       <r>    5.4718    0.0000 </r>
       <r>    5.8407    0.0000 </r>
      </set>
      <set comment="kpoint 3">
       <r>   -8.5498    1.0000 </r>
       <r>   -7.9216    1.0000 </r>
       <r>   -7.0281    1.0000 </r>
       <r>   -6.7615    1.0000 </r>
       <r>   -6.4761    1.0000 </r>
       <r>   -6.2406    1.0000 </r>
       <r>   -5.8231    1.0000 </r>
       <r>   -5.5559    1.0000 </r>
       <r>   -5.4319    1.0000 </r>
       <r>   -5.2890    1.0000 </r>
       <r>   -5.1943    1.0000 </r>
       <r>   -5.1233    1.0000 </r>
       <r>   -5.0968    1.0000 </r>
       <r>   -5.0858    1.0000 </r>
       <r>   -4.8435    1.0000 </r>
       <r>   -4.8161    1.0000 </r>
       <r>   -4.8102    1.0000 </r>
       <r>   -4.7532    1.0000 </r>
       <r>   -4.7455    1.0000 </r>
       <r>   -4.7072    1.0000 </r>
       <r>   -4.5935    1.0000 </r>
       <r>   -4.5492    1.0000 </r>
       <r>   -4.5355    1.0000 </r>
       <r>   -4.5047    1.0000 </r>
       <r>   -4.4629    1.0000 </r>
       <r>   -4.4398    1.0000 </r>
       <r>   -4.4199    1.0000 </r>
       <r>   -4.4077    1.0000 </r>
       <r>   -4.4013    1.0000 </r>
       <r>   -4.3732    1.0000 </r>
       <r>   -4.3491    1.0000 </r>
       <r>   -4.3382    1.0000 </r>
       <r>   -4.2584    1.0000 </r>
       <r>   -4.2478    1.0000 </r>
       <r>   -4.1708    1.0000 </r>
       <r>   -4.1596    1.0000 </r>
       <r>   -4.1355    1.0000 </r>
       <r>   -4.1316    1.0000 </r>
       <r>   -4.0717    1.0000 </r>
       <r>   -4.0652    1.0000 </r>
       <r>   -4.0446    1.0000 </r>
       <r>   -4.0201    1.0000 </r>
       <r>   -4.0031    1.0000 </r>
       <r>   -3.9464    1.0000 </r>
       <r>   -3.9416    1.0000 </r>
       <r>   -3.9324    1.0000 </r>
       <r>   -3.8812    1.0000 </r>
       <r>   -3.8412    1.0000 </r>
       <r>   -3.8360    1.0000 </r>
       <r>   -3.8115    1.0000 </r>
       <r>   -3.8076    1.0000 </r>
       <r>   -3.7492    1.0000 </r>
       <r>   -3.7128    1.0000 </r>
       <r>   -3.6897    1.0000 </r>
       <r>   -3.6771    1.0000 </r>
       <r>   -3.6633    1.0000 </r>
       <r>   -3.6477    1.0000 </r>
       <r>   -3.6347    1.0000 </r>
       <r>   -3.5994    1.0000 </r>
       <r>   -3.5896    1.0000 </r>
       <r>   -3.5693    1.0000 </r>
       <r>   -3.5645    1.0000 </r>
       <r>   -3.5516    1.0000 </r>
       <r>   -3.5506    1.0000 </r>
       <r>   -3.5280    1.0000 </r>
       <r>   -3.5218    1.0000 </r>
       <r>   -3.5022    1.0000 </r>
       <r>   -3.4366    1.0000 </r>
       <r>   -3.3964    1.0000 </r>
       <r>   -3.3697    1.0000 </r>
       <r>   -3.3530    1.0000 </r>
       <r>   -3.3504    1.0000 </r>
       <r>   -3.3352    1.0000 </r>
       <r>   -3.3187    1.0000 </r>
       <r>   -3.2743    1.0000 </r>
       <r>   -3.2502    1.0000 </r>
       <r>   -3.2284    1.0000 </r>
       <r>   -3.2247    1.0000 </r>
       <r>   -3.2138    1.0000 </r>
       <r>   -3.2101    1.0000 </r>
       <r>   -3.2039    1.0000 </r>
       <r>   -3.1982    1.0000 </r>
       <r>   -3.1924    1.0000 </r>
       <r>   -3.1791    1.0000 </r>
       <r>   -3.1707    1.0000 </r>
       <r>   -3.1536    1.0000 </r>
       <r>   -3.1443    1.0000 </r>
       <r>   -3.1393    1.0000 </r>
       <r>   -3.1172    1.0000 </r>
       <r>   -3.1096    1.0000 </r>
       <r>   -3.1023    1.0000 </r>
       <r>   -3.0910    1.0000 </r>
       <r>   -3.0757    1.0000 </r>
       <r>   -3.0424    1.0000 </r>
       <r>   -3.0338    1.0000 </r>
       <r>   -3.0046    1.0000 </r>
       <r>   -2.9843    1.0000 </r>
       <r>   -2.9764    1.0000 </r>
       <r>   -2.9207    1.0000 </r>
       <r>   -2.9119    1.0000 </r>
       <r>   -2.8723    1.0000 </r>
       <r>   -2.8680    1.0000 </r>
       <r>   -2.8556    1.0000 </r>
       <r>   -2.8545    1.0000 </r>
       <r>   -2.8467    1.0000 </r>
       <r>   -2.8462    1.0000 </r>
       <r>   -2.8262    1.0000 </r>
       <r>   -2.8179    1.0000 </r>
       <r>   -2.8100    1.0000 </r>
       <r>   -2.7898    1.0000 </r>
       <r>   -2.7752    1.0000 </r>
       <r>   -2.7622    1.0000 </r>
       <r>   -2.7388    1.0000 </r>
       <r>   -2.7338    1.0000 </r>
       <r>   -2.7121    1.0000 </r>
       <r>   -2.7063    1.0000 </r>
       <r>   -2.7031    1.0000 </r>
       <r>   -2.6984    1.0000 </r>
       <r>   -2.6812    1.0000 </r>
       <r>   -2.6683    1.0000 </r>
       <r>   -2.6535    1.0000 </r>
       <r>   -2.6481    1.0000 </r>
       <r>   -2.6246    1.0000 </r>
       <r>   -2.6193    1.0000 </r>
       <r>   -2.6102    1.0000 </r>
       <r>   -2.5537    1.0000 </r>
       <r>   -2.5279    1.0000 </r>
       <r>   -2.5057    1.0000 </r>
       <r>   -2.4997    1.0000 </r>
       <r>   -2.4964    1.0000 </r>
       <r>   -2.4781    1.0000 </r>
       <r>   -2.4718    1.0000 </r>
       <r>   -2.4536    1.0000 </r>
       <r>   -2.4402    1.0000 </r>
       <r>   -2.4361    1.0000 </r>
       <r>   -2.4338    1.0000 </r>
       <r>   -2.4254    1.0000 </r>
       <r>   -2.4194    1.0000 </r>
       <r>   -2.4030    1.0000 </r>
       <r>   -2.3929    1.0000 </r>
       <r>   -2.3853    1.0000 </r>
       <r>   -2.3841    1.0000 </r>
       <r>   -2.3753    1.0000 </r>
       <r>   -2.3718    1.0000 </r>
       <r>   -2.3551    1.0000 </r>
       <r>   -2.3455    1.0000 </r>
       <r>   -2.3274    1.0000 </r>
       <r>   -2.3212    1.0000 </r>
       <r>   -2.2900    1.0000 </r>
       <r>   -2.2851    1.0000 </r>
       <r>   -2.2795    1.0000 </r>
       <r>   -2.2488    1.0000 </r>
       <r>   -2.2313    1.0000 </r>
       <r>   -2.2256    1.0000 </r>
       <r>   -2.2161    1.0000 </r>
       <r>   -2.2124    1.0000 </r>
       <r>   -2.1788    1.0000 </r>
       <r>   -2.1729    1.0000 </r>
       <r>   -2.1537    1.0000 </r>
       <r>   -2.1488    1.0000 </r>
       <r>   -2.1476    1.0000 </r>
       <r>   -2.1390    1.0000 </r>
       <r>   -2.1316    1.0000 </r>
       <r>   -2.1281    1.0000 </r>
       <r>   -2.1225    1.0000 </r>
       <r>   -2.1103    1.0000 </r>
       <r>   -2.0899    1.0000 </r>
       <r>   -2.0890    1.0000 </r>
       <r>   -2.0870    1.0000 </r>
       <r>   -2.0858    1.0000 </r>
       <r>   -2.0757    1.0000 </r>
       <r>   -2.0660    1.0000 </r>
       <r>   -2.0623    1.0000 </r>
       <r>   -2.0573    1.0000 </r>
       <r>   -2.0422    1.0000 </r>
       <r>   -2.0224    1.0000 </r>
       <r>   -2.0034    1.0000 </r>
       <r>   -1.9960    1.0000 </r>
       <r>   -1.9821    1.0000 </r>
       <r>   -1.9786    1.0000 </r>
       <r>   -1.9698    1.0000 </r>
       <r>   -1.9388    1.0000 </r>
       <r>   -1.9292    1.0000 </r>
       <r>   -1.9260    1.0000 </r>
       <r>   -1.9109    1.0000 </r>
       <r>   -1.8862    1.0000 </r>
       <r>   -1.8344    1.0000 </r>
       <r>   -1.7984    1.0000 </r>
       <r>   -1.7691    1.0000 </r>
       <r>   -1.7122    1.0000 </r>
       <r>   -1.6722    1.0000 </r>
       <r>   -1.6057    1.0000 </r>
       <r>   -1.5361    1.0000 </r>
       <r>   -1.1834    1.0000 </r>
       <r>   -1.0928    0.9999 </r>
       <r>   -0.9593    0.9978 </r>
       <r>   -0.7877    1.0031 </r>
       <r>   -0.3609    0.0579 </r>
       <r>   -0.1809   -0.0185 </r>
       <r>   -0.1718   -0.0147 </r>
       <r>   -0.0930    0.0037 </r>
       <r>    0.0092    0.0031 </r>
       <r>    0.1518    0.0002 </r>
       <r>    0.3497    0.0000 </r>
       <r>    0.5831    0.0000 </r>
       <r>    0.7821    0.0000 </r>
       <r>    1.1582    0.0000 </r>
       <r>    1.3014    0.0000 </r>
       <r>    1.5742    0.0000 </r>
       <r>    1.5856    0.0000 </r>
       <r>    2.0734    0.0000 </r>
       <r>    2.1677    0.0000 </r>
       <r>    2.2169    0.0000 </r>
       <r>    2.2618    0.0000 </r>
       <r>    2.2726    0.0000 </r>
       <r>    2.6009    0.0000 </r>
       <r>    2.7155    0.0000 </r>
       <r>    2.8001    0.0000 </r>
       <r>    3.2491    0.0000 </r>
       <r>    3.2575    0.0000 </r>
       <r>    3.5299    0.0000 </r>
       <r>    3.6614    0.0000 </r>
       <r>    3.6936    0.0000 </r>
       <r>    3.7441    0.0000 </r>
       <r>    3.9023    0.0000 </r>
       <r>    3.9815    0.0000 </r>
       <r>    4.1684    0.0000 </r>
       <r>    4.4520    0.0000 </r>
       <r>    4.4936    0.0000 </r>
       <r>    4.5319    0.0000 </r>
       <r>    4.5455    0.0000 </r>
       <r>    4.8474    0.0000 </r>
       <r>    4.9991    0.0000 </r>
       <r>    5.0690    0.0000 </r>
       <r>    5.1047    0.0000 </r>
       <r>    5.1813    0.0000 </r>
       <r>    5.3424    0.0000 </r>
       <r>    5.4575    0.0000 </r>
       <r>    5.4810    0.0000 </r>
       <r>    5.9583    0.0000 </r>
      </set>
      <set comment="kpoint 4">
       <r>   -8.8743    1.0000 </r>
       <r>   -7.3278    1.0000 </r>
       <r>   -7.0493    1.0000 </r>
       <r>   -7.0444    1.0000 </r>
       <r>   -6.0653    1.0000 </r>
       <r>   -6.0601    1.0000 </r>
       <r>   -5.8140    1.0000 </r>
       <r>   -5.8053    1.0000 </r>
       <r>   -5.6124    1.0000 </r>
       <r>   -5.4337    1.0000 </r>
       <r>   -5.3007    1.0000 </r>
       <r>   -5.2928    1.0000 </r>
       <r>   -5.0811    1.0000 </r>
       <r>   -5.0796    1.0000 </r>
       <r>   -4.9808    1.0000 </r>
       <r>   -4.8994    1.0000 </r>
       <r>   -4.6814    1.0000 </r>
       <r>   -4.6552    1.0000 </r>
       <r>   -4.6455    1.0000 </r>
       <r>   -4.6252    1.0000 </r>
       <r>   -4.6182    1.0000 </r>
       <r>   -4.5717    1.0000 </r>
       <r>   -4.5017    1.0000 </r>
       <r>   -4.4429    1.0000 </r>
       <r>   -4.4412    1.0000 </r>
       <r>   -4.3798    1.0000 </r>
       <r>   -4.3661    1.0000 </r>
       <r>   -4.3625    1.0000 </r>
       <r>   -4.3266    1.0000 </r>
       <r>   -4.3214    1.0000 </r>
       <r>   -4.3159    1.0000 </r>
       <r>   -4.3054    1.0000 </r>
       <r>   -4.2990    1.0000 </r>
       <r>   -4.2316    1.0000 </r>
       <r>   -4.2254    1.0000 </r>
       <r>   -4.2217    1.0000 </r>
       <r>   -4.2156    1.0000 </r>
       <r>   -4.2070    1.0000 </r>
       <r>   -4.1271    1.0000 </r>
       <r>   -4.1234    1.0000 </r>
       <r>   -4.0746    1.0000 </r>
       <r>   -4.0591    1.0000 </r>
       <r>   -4.0345    1.0000 </r>
       <r>   -4.0281    1.0000 </r>
       <r>   -3.9406    1.0000 </r>
       <r>   -3.8298    1.0000 </r>
       <r>   -3.8273    1.0000 </r>
       <r>   -3.8165    1.0000 </r>
       <r>   -3.8097    1.0000 </r>
       <r>   -3.7775    1.0000 </r>
       <r>   -3.7503    1.0000 </r>
       <r>   -3.7307    1.0000 </r>
       <r>   -3.7234    1.0000 </r>
       <r>   -3.7213    1.0000 </r>
       <r>   -3.6787    1.0000 </r>
       <r>   -3.6123    1.0000 </r>
       <r>   -3.6099    1.0000 </r>
       <r>   -3.5909    1.0000 </r>
       <r>   -3.5518    1.0000 </r>
       <r>   -3.5472    1.0000 </r>
       <r>   -3.5434    1.0000 </r>
       <r>   -3.5188    1.0000 </r>
       <r>   -3.4988    1.0000 </r>
       <r>   -3.4927    1.0000 </r>
       <r>   -3.4898    1.0000 </r>
       <r>   -3.4747    1.0000 </r>
       <r>   -3.4669    1.0000 </r>
       <r>   -3.4618    1.0000 </r>
       <r>   -3.4108    1.0000 </r>
       <r>   -3.4081    1.0000 </r>
       <r>   -3.4026    1.0000 </r>
       <r>   -3.3062    1.0000 </r>
       <r>   -3.2968    1.0000 </r>
       <r>   -3.2848    1.0000 </r>
       <r>   -3.2784    1.0000 </r>
       <r>   -3.2503    1.0000 </r>
       <r>   -3.2374    1.0000 </r>
       <r>   -3.2314    1.0000 </r>
       <r>   -3.1973    1.0000 </r>
       <r>   -3.1908    1.0000 </r>
       <r>   -3.1846    1.0000 </r>
       <r>   -3.1738    1.0000 </r>
       <r>   -3.1707    1.0000 </r>
       <r>   -3.1643    1.0000 </r>
       <r>   -3.1481    1.0000 </r>
       <r>   -3.1443    1.0000 </r>
       <r>   -3.1388    1.0000 </r>
       <r>   -3.1352    1.0000 </r>
       <r>   -3.1325    1.0000 </r>
       <r>   -3.1207    1.0000 </r>
       <r>   -3.1122    1.0000 </r>
       <r>   -3.1035    1.0000 </r>
       <r>   -3.0941    1.0000 </r>
       <r>   -3.0808    1.0000 </r>
       <r>   -3.0650    1.0000 </r>
       <r>   -3.0616    1.0000 </r>
       <r>   -3.0156    1.0000 </r>
       <r>   -3.0120    1.0000 </r>
       <r>   -2.9656    1.0000 </r>
       <r>   -2.9142    1.0000 </r>
       <r>   -2.9113    1.0000 </r>
       <r>   -2.8798    1.0000 </r>
       <r>   -2.8722    1.0000 </r>
       <r>   -2.7686    1.0000 </r>
       <r>   -2.7583    1.0000 </r>
       <r>   -2.7505    1.0000 </r>
       <r>   -2.7494    1.0000 </r>
       <r>   -2.7192    1.0000 </r>
       <r>   -2.7125    1.0000 </r>
       <r>   -2.7012    1.0000 </r>
       <r>   -2.6953    1.0000 </r>
       <r>   -2.6822    1.0000 </r>
       <r>   -2.6569    1.0000 </r>
       <r>   -2.6555    1.0000 </r>
       <r>   -2.6504    1.0000 </r>
       <r>   -2.6456    1.0000 </r>
       <r>   -2.6218    1.0000 </r>
       <r>   -2.6174    1.0000 </r>
       <r>   -2.6142    1.0000 </r>
       <r>   -2.6111    1.0000 </r>
       <r>   -2.5983    1.0000 </r>
       <r>   -2.5925    1.0000 </r>
       <r>   -2.5715    1.0000 </r>
       <r>   -2.5522    1.0000 </r>
       <r>   -2.5452    1.0000 </r>
       <r>   -2.5416    1.0000 </r>
       <r>   -2.5385    1.0000 </r>
       <r>   -2.5248    1.0000 </r>
       <r>   -2.5230    1.0000 </r>
       <r>   -2.5195    1.0000 </r>
       <r>   -2.5153    1.0000 </r>
       <r>   -2.5112    1.0000 </r>
       <r>   -2.5069    1.0000 </r>
       <r>   -2.5048    1.0000 </r>
       <r>   -2.4905    1.0000 </r>
       <r>   -2.4877    1.0000 </r>
       <r>   -2.4439    1.0000 </r>
       <r>   -2.4272    1.0000 </r>
       <r>   -2.3947    1.0000 </r>
       <r>   -2.3693    1.0000 </r>
       <r>   -2.3606    1.0000 </r>
       <r>   -2.3546    1.0000 </r>
       <r>   -2.3362    1.0000 </r>
       <r>   -2.3265    1.0000 </r>
       <r>   -2.3225    1.0000 </r>
       <r>   -2.3208    1.0000 </r>
       <r>   -2.3189    1.0000 </r>
       <r>   -2.3163    1.0000 </r>
       <r>   -2.3139    1.0000 </r>
       <r>   -2.3031    1.0000 </r>
       <r>   -2.2756    1.0000 </r>
       <r>   -2.2740    1.0000 </r>
       <r>   -2.2267    1.0000 </r>
       <r>   -2.1953    1.0000 </r>
       <r>   -2.1936    1.0000 </r>
       <r>   -2.1849    1.0000 </r>
       <r>   -2.1824    1.0000 </r>
       <r>   -2.1734    1.0000 </r>
       <r>   -2.1691    1.0000 </r>
       <r>   -2.1597    1.0000 </r>
       <r>   -2.1523    1.0000 </r>
       <r>   -2.1506    1.0000 </r>
       <r>   -2.1488    1.0000 </r>
       <r>   -2.1477    1.0000 </r>
       <r>   -2.1464    1.0000 </r>
       <r>   -2.1376    1.0000 </r>
       <r>   -2.1352    1.0000 </r>
       <r>   -2.1333    1.0000 </r>
       <r>   -2.1089    1.0000 </r>
       <r>   -2.1068    1.0000 </r>
       <r>   -2.0714    1.0000 </r>
       <r>   -2.0680    1.0000 </r>
       <r>   -2.0674    1.0000 </r>
       <r>   -2.0618    1.0000 </r>
       <r>   -2.0583    1.0000 </r>
       <r>   -2.0218    1.0000 </r>
       <r>   -1.9873    1.0000 </r>
       <r>   -1.9854    1.0000 </r>
       <r>   -1.9824    1.0000 </r>
       <r>   -1.9799    1.0000 </r>
       <r>   -1.9752    1.0000 </r>
       <r>   -1.9702    1.0000 </r>
       <r>   -1.9674    1.0000 </r>
       <r>   -1.9529    1.0000 </r>
       <r>   -1.9331    1.0000 </r>
       <r>   -1.9263    1.0000 </r>
       <r>   -1.9236    1.0000 </r>
       <r>   -1.9227    1.0000 </r>
       <r>   -1.9125    1.0000 </r>
       <r>   -1.9085    1.0000 </r>
       <r>   -1.9047    1.0000 </r>
       <r>   -1.8610    1.0000 </r>
       <r>   -1.4405    1.0000 </r>
       <r>   -1.4370    1.0000 </r>
       <r>   -1.1815    1.0000 </r>
       <r>   -1.1801    1.0000 </r>
       <r>   -1.1021    0.9999 </r>
       <r>   -0.8245    0.9969 </r>
       <r>   -0.7161    1.0311 </r>
       <r>   -0.4887    0.6390 </r>
       <r>   -0.4844    0.6168 </r>
       <r>   -0.2154   -0.0347 </r>
       <r>   -0.2096   -0.0319 </r>
       <r>    0.6455    0.0000 </r>
       <r>    0.7240    0.0000 </r>
       <r>    0.8317    0.0000 </r>
       <r>    1.2134    0.0000 </r>
       <r>    1.2193    0.0000 </r>
       <r>    1.6547    0.0000 </r>
       <r>    1.6575    0.0000 </r>
       <r>    1.7547    0.0000 </r>
       <r>    1.7688    0.0000 </r>
       <r>    2.9710    0.0000 </r>
       <r>    3.0346    0.0000 </r>
       <r>    3.0399    0.0000 </r>
       <r>    3.1712    0.0000 </r>
       <r>    3.2089    0.0000 </r>
       <r>    3.3683    0.0000 </r>
       <r>    3.3762    0.0000 </r>
       <r>    3.5155    0.0000 </r>
       <r>    3.5578    0.0000 </r>
       <r>    3.5617    0.0000 </r>
       <r>    3.6881    0.0000 </r>
       <r>    3.6921    0.0000 </r>
       <r>    4.1861    0.0000 </r>
       <r>    4.4088    0.0000 </r>
       <r>    4.4103    0.0000 </r>
       <r>    4.7072    0.0000 </r>
       <r>    4.7103    0.0000 </r>
       <r>    4.8525    0.0000 </r>
       <r>    5.0560    0.0000 </r>
       <r>    5.0623    0.0000 </r>
       <r>    5.1481    0.0000 </r>
       <r>    5.1500    0.0000 </r>
       <r>    5.2064    0.0000 </r>
       <r>    5.2107    0.0000 </r>
       <r>    5.3600    0.0000 </r>
       <r>    5.3835    0.0000 </r>
       <r>    5.4735    0.0000 </r>
       <r>    5.5718    0.0000 </r>
      </set>
      <set comment="kpoint 5">
       <r>   -8.5499    1.0000 </r>
       <r>   -7.9218    1.0000 </r>
       <r>   -7.0269    1.0000 </r>
       <r>   -6.7628    1.0000 </r>
       <r>   -6.4740    1.0000 </r>
       <r>   -6.2419    1.0000 </r>
       <r>   -5.8236    1.0000 </r>
       <r>   -5.5564    1.0000 </r>
       <r>   -5.4323    1.0000 </r>
       <r>   -5.2892    1.0000 </r>
       <r>   -5.1944    1.0000 </r>
       <r>   -5.1237    1.0000 </r>
       <r>   -5.0945    1.0000 </r>
       <r>   -5.0871    1.0000 </r>
       <r>   -4.8445    1.0000 </r>
       <r>   -4.8159    1.0000 </r>
       <r>   -4.8096    1.0000 </r>
       <r>   -4.7544    1.0000 </r>
       <r>   -4.7467    1.0000 </r>
       <r>   -4.7055    1.0000 </r>
       <r>   -4.5963    1.0000 </r>
       <r>   -4.5448    1.0000 </r>
       <r>   -4.5352    1.0000 </r>
       <r>   -4.4992    1.0000 </r>
       <r>   -4.4686    1.0000 </r>
       <r>   -4.4314    1.0000 </r>
       <r>   -4.4208    1.0000 </r>
       <r>   -4.4126    1.0000 </r>
       <r>   -4.3990    1.0000 </r>
       <r>   -4.3695    1.0000 </r>
       <r>   -4.3509    1.0000 </r>
       <r>   -4.3454    1.0000 </r>
       <r>   -4.2556    1.0000 </r>
       <r>   -4.2488    1.0000 </r>
       <r>   -4.1725    1.0000 </r>
       <r>   -4.1617    1.0000 </r>
       <r>   -4.1374    1.0000 </r>
       <r>   -4.1294    1.0000 </r>
       <r>   -4.0676    1.0000 </r>
       <r>   -4.0649    1.0000 </r>
       <r>   -4.0462    1.0000 </r>
       <r>   -4.0201    1.0000 </r>
       <r>   -4.0106    1.0000 </r>
       <r>   -3.9453    1.0000 </r>
       <r>   -3.9402    1.0000 </r>
       <r>   -3.9303    1.0000 </r>
       <r>   -3.8771    1.0000 </r>
       <r>   -3.8382    1.0000 </r>
       <r>   -3.8352    1.0000 </r>
       <r>   -3.8163    1.0000 </r>
       <r>   -3.8077    1.0000 </r>
       <r>   -3.7511    1.0000 </r>
       <r>   -3.7063    1.0000 </r>
       <r>   -3.6949    1.0000 </r>
       <r>   -3.6826    1.0000 </r>
       <r>   -3.6587    1.0000 </r>
       <r>   -3.6514    1.0000 </r>
       <r>   -3.6377    1.0000 </r>
       <r>   -3.5912    1.0000 </r>
       <r>   -3.5868    1.0000 </r>
       <r>   -3.5691    1.0000 </r>
       <r>   -3.5642    1.0000 </r>
       <r>   -3.5513    1.0000 </r>
       <r>   -3.5439    1.0000 </r>
       <r>   -3.5329    1.0000 </r>
       <r>   -3.5256    1.0000 </r>
       <r>   -3.5097    1.0000 </r>
       <r>   -3.4359    1.0000 </r>
       <r>   -3.3966    1.0000 </r>
       <r>   -3.3659    1.0000 </r>
       <r>   -3.3573    1.0000 </r>
       <r>   -3.3517    1.0000 </r>
       <r>   -3.3329    1.0000 </r>
       <r>   -3.3215    1.0000 </r>
       <r>   -3.2728    1.0000 </r>
       <r>   -3.2522    1.0000 </r>
       <r>   -3.2262    1.0000 </r>
       <r>   -3.2234    1.0000 </r>
       <r>   -3.2126    1.0000 </r>
       <r>   -3.2082    1.0000 </r>
       <r>   -3.2022    1.0000 </r>
       <r>   -3.1987    1.0000 </r>
       <r>   -3.1895    1.0000 </r>
       <r>   -3.1861    1.0000 </r>
       <r>   -3.1696    1.0000 </r>
       <r>   -3.1574    1.0000 </r>
       <r>   -3.1429    1.0000 </r>
       <r>   -3.1405    1.0000 </r>
       <r>   -3.1160    1.0000 </r>
       <r>   -3.1108    1.0000 </r>
       <r>   -3.1051    1.0000 </r>
       <r>   -3.0833    1.0000 </r>
       <r>   -3.0764    1.0000 </r>
       <r>   -3.0428    1.0000 </r>
       <r>   -3.0356    1.0000 </r>
       <r>   -3.0080    1.0000 </r>
       <r>   -2.9825    1.0000 </r>
       <r>   -2.9796    1.0000 </r>
       <r>   -2.9198    1.0000 </r>
       <r>   -2.9068    1.0000 </r>
       <r>   -2.8723    1.0000 </r>
       <r>   -2.8704    1.0000 </r>
       <r>   -2.8605    1.0000 </r>
       <r>   -2.8532    1.0000 </r>
       <r>   -2.8463    1.0000 </r>
       <r>   -2.8424    1.0000 </r>
       <r>   -2.8249    1.0000 </r>
       <r>   -2.8191    1.0000 </r>
       <r>   -2.8063    1.0000 </r>
       <r>   -2.7902    1.0000 </r>
       <r>   -2.7811    1.0000 </r>
       <r>   -2.7667    1.0000 </r>
       <r>   -2.7351    1.0000 </r>
       <r>   -2.7193    1.0000 </r>
       <r>   -2.7166    1.0000 </r>
       <r>   -2.7104    1.0000 </r>
       <r>   -2.7071    1.0000 </r>
       <r>   -2.6998    1.0000 </r>
       <r>   -2.6755    1.0000 </r>
       <r>   -2.6681    1.0000 </r>
       <r>   -2.6539    1.0000 </r>
       <r>   -2.6353    1.0000 </r>
       <r>   -2.6282    1.0000 </r>
       <r>   -2.6204    1.0000 </r>
       <r>   -2.6128    1.0000 </r>
       <r>   -2.5530    1.0000 </r>
       <r>   -2.5235    1.0000 </r>
       <r>   -2.5076    1.0000 </r>
       <r>   -2.4993    1.0000 </r>
       <r>   -2.4964    1.0000 </r>
       <r>   -2.4812    1.0000 </r>
       <r>   -2.4697    1.0000 </r>
       <r>   -2.4529    1.0000 </r>
       <r>   -2.4428    1.0000 </r>
       <r>   -2.4333    1.0000 </r>
       <r>   -2.4304    1.0000 </r>
       <r>   -2.4257    1.0000 </r>
       <r>   -2.4199    1.0000 </r>
       <r>   -2.3989    1.0000 </r>
       <r>   -2.3933    1.0000 </r>
       <r>   -2.3902    1.0000 </r>
       <r>   -2.3866    1.0000 </r>
       <r>   -2.3731    1.0000 </r>
       <r>   -2.3711    1.0000 </r>
       <r>   -2.3508    1.0000 </r>
       <r>   -2.3470    1.0000 </r>
       <r>   -2.3279    1.0000 </r>
       <r>   -2.3205    1.0000 </r>
       <r>   -2.2923    1.0000 </r>
       <r>   -2.2867    1.0000 </r>
       <r>   -2.2804    1.0000 </r>
       <r>   -2.2480    1.0000 </r>
       <r>   -2.2303    1.0000 </r>
       <r>   -2.2248    1.0000 </r>
       <r>   -2.2154    1.0000 </r>
       <r>   -2.2129    1.0000 </r>
       <r>   -2.1773    1.0000 </r>
       <r>   -2.1724    1.0000 </r>
       <r>   -2.1502    1.0000 </r>
       <r>   -2.1491    1.0000 </r>
       <r>   -2.1474    1.0000 </r>
       <r>   -2.1386    1.0000 </r>
       <r>   -2.1330    1.0000 </r>
       <r>   -2.1291    1.0000 </r>
       <r>   -2.1248    1.0000 </r>
       <r>   -2.1105    1.0000 </r>
       <r>   -2.0922    1.0000 </r>
       <r>   -2.0896    1.0000 </r>
       <r>   -2.0872    1.0000 </r>
       <r>   -2.0864    1.0000 </r>
       <r>   -2.0770    1.0000 </r>
       <r>   -2.0639    1.0000 </r>
       <r>   -2.0617    1.0000 </r>
       <r>   -2.0573    1.0000 </r>
       <r>   -2.0427    1.0000 </r>
       <r>   -2.0230    1.0000 </r>
       <r>   -2.0040    1.0000 </r>
       <r>   -1.9939    1.0000 </r>
       <r>   -1.9834    1.0000 </r>
       <r>   -1.9796    1.0000 </r>
       <r>   -1.9695    1.0000 </r>
       <r>   -1.9383    1.0000 </r>
       <r>   -1.9287    1.0000 </r>
       <r>   -1.9257    1.0000 </r>
       <r>   -1.9103    1.0000 </r>
       <r>   -1.8860    1.0000 </r>
       <r>   -1.8359    1.0000 </r>
       <r>   -1.7989    1.0000 </r>
       <r>   -1.7710    1.0000 </r>
       <r>   -1.7125    1.0000 </r>
       <r>   -1.6726    1.0000 </r>
       <r>   -1.6064    1.0000 </r>
       <r>   -1.5370    1.0000 </r>
       <r>   -1.1844    1.0000 </r>
       <r>   -1.0943    0.9999 </r>
       <r>   -0.9599    0.9979 </r>
       <r>   -0.7881    1.0030 </r>
       <r>   -0.3618    0.0605 </r>
       <r>   -0.1814   -0.0187 </r>
       <r>   -0.1700   -0.0140 </r>
       <r>   -0.0940    0.0036 </r>
       <r>    0.0074    0.0031 </r>
       <r>    0.1494    0.0002 </r>
       <r>    0.3517    0.0000 </r>
       <r>    0.5831    0.0000 </r>
       <r>    0.7813    0.0000 </r>
       <r>    1.1581    0.0000 </r>
       <r>    1.3044    0.0000 </r>
       <r>    1.5706    0.0000 </r>
       <r>    1.5879    0.0000 </r>
       <r>    2.0713    0.0000 </r>
       <r>    2.1672    0.0000 </r>
       <r>    2.2306    0.0000 </r>
       <r>    2.2544    0.0000 </r>
       <r>    2.2692    0.0000 </r>
       <r>    2.6019    0.0000 </r>
       <r>    2.7152    0.0000 </r>
       <r>    2.8002    0.0000 </r>
       <r>    3.2502    0.0000 </r>
       <r>    3.2575    0.0000 </r>
       <r>    3.5298    0.0000 </r>
       <r>    3.6604    0.0000 </r>
       <r>    3.6917    0.0000 </r>
       <r>    3.7472    0.0000 </r>
       <r>    3.9030    0.0000 </r>
       <r>    3.9804    0.0000 </r>
       <r>    4.1682    0.0000 </r>
       <r>    4.4602    0.0000 </r>
       <r>    4.4935    0.0000 </r>
       <r>    4.5248    0.0000 </r>
       <r>    4.5477    0.0000 </r>
       <r>    4.8484    0.0000 </r>
       <r>    4.9988    0.0000 </r>
       <r>    5.0689    0.0000 </r>
       <r>    5.1047    0.0000 </r>
       <r>    5.1811    0.0000 </r>
       <r>    5.3413    0.0000 </r>
       <r>    5.4568    0.0000 </r>
       <r>    5.4834    0.0000 </r>
       <r>    5.9159    0.0000 </r>
      </set>
      <set comment="kpoint 6">
       <r>   -8.2298    1.0000 </r>
       <r>   -7.6164    1.0000 </r>
       <r>   -7.6095    1.0000 </r>
       <r>   -7.0256    1.0000 </r>
       <r>   -6.7319    1.0000 </r>
       <r>   -6.1969    1.0000 </r>
       <r>   -6.1882    1.0000 </r>
       <r>   -5.6881    1.0000 </r>
       <r>   -5.1019    1.0000 </r>
       <r>   -5.0949    1.0000 </r>
       <r>   -4.9603    1.0000 </r>
       <r>   -4.9185    1.0000 </r>
       <r>   -4.9101    1.0000 </r>
       <r>   -4.8666    1.0000 </r>
       <r>   -4.8381    1.0000 </r>
       <r>   -4.8348    1.0000 </r>
       <r>   -4.8080    1.0000 </r>
       <r>   -4.6579    1.0000 </r>
       <r>   -4.6424    1.0000 </r>
       <r>   -4.6379    1.0000 </r>
       <r>   -4.6208    1.0000 </r>
       <r>   -4.6162    1.0000 </r>
       <r>   -4.4960    1.0000 </r>
       <r>   -4.4929    1.0000 </r>
       <r>   -4.4630    1.0000 </r>
       <r>   -4.4563    1.0000 </r>
       <r>   -4.4261    1.0000 </r>
       <r>   -4.4198    1.0000 </r>
       <r>   -4.4081    1.0000 </r>
       <r>   -4.4056    1.0000 </r>
       <r>   -4.3374    1.0000 </r>
       <r>   -4.3170    1.0000 </r>
       <r>   -4.3126    1.0000 </r>
       <r>   -4.3078    1.0000 </r>
       <r>   -4.2624    1.0000 </r>
       <r>   -4.2578    1.0000 </r>
       <r>   -4.2378    1.0000 </r>
       <r>   -4.1811    1.0000 </r>
       <r>   -4.1792    1.0000 </r>
       <r>   -4.1707    1.0000 </r>
       <r>   -4.1247    1.0000 </r>
       <r>   -4.0027    1.0000 </r>
       <r>   -3.9641    1.0000 </r>
       <r>   -3.9263    1.0000 </r>
       <r>   -3.9232    1.0000 </r>
       <r>   -3.8613    1.0000 </r>
       <r>   -3.8509    1.0000 </r>
       <r>   -3.8364    1.0000 </r>
       <r>   -3.8304    1.0000 </r>
       <r>   -3.8232    1.0000 </r>
       <r>   -3.8084    1.0000 </r>
       <r>   -3.8031    1.0000 </r>
       <r>   -3.7686    1.0000 </r>
       <r>   -3.7600    1.0000 </r>
       <r>   -3.7270    1.0000 </r>
       <r>   -3.6426    1.0000 </r>
       <r>   -3.6338    1.0000 </r>
       <r>   -3.6263    1.0000 </r>
       <r>   -3.6184    1.0000 </r>
       <r>   -3.5810    1.0000 </r>
       <r>   -3.5738    1.0000 </r>
       <r>   -3.5389    1.0000 </r>
       <r>   -3.5370    1.0000 </r>
       <r>   -3.4963    1.0000 </r>
       <r>   -3.4880    1.0000 </r>
       <r>   -3.4707    1.0000 </r>
       <r>   -3.4647    1.0000 </r>
       <r>   -3.4503    1.0000 </r>
       <r>   -3.4417    1.0000 </r>
       <r>   -3.3931    1.0000 </r>
       <r>   -3.3843    1.0000 </r>
       <r>   -3.3638    1.0000 </r>
       <r>   -3.3605    1.0000 </r>
       <r>   -3.3501    1.0000 </r>
       <r>   -3.3398    1.0000 </r>
       <r>   -3.3055    1.0000 </r>
       <r>   -3.2710    1.0000 </r>
       <r>   -3.2646    1.0000 </r>
       <r>   -3.2603    1.0000 </r>
       <r>   -3.2559    1.0000 </r>
       <r>   -3.2532    1.0000 </r>
       <r>   -3.2452    1.0000 </r>
       <r>   -3.1877    1.0000 </r>
       <r>   -3.1769    1.0000 </r>
       <r>   -3.1727    1.0000 </r>
       <r>   -3.1550    1.0000 </r>
       <r>   -3.1352    1.0000 </r>
       <r>   -3.1328    1.0000 </r>
       <r>   -3.1040    1.0000 </r>
       <r>   -3.0994    1.0000 </r>
       <r>   -3.0760    1.0000 </r>
       <r>   -3.0710    1.0000 </r>
       <r>   -3.0671    1.0000 </r>
       <r>   -3.0302    1.0000 </r>
       <r>   -3.0278    1.0000 </r>
       <r>   -2.9782    1.0000 </r>
       <r>   -2.9653    1.0000 </r>
       <r>   -2.9625    1.0000 </r>
       <r>   -2.9443    1.0000 </r>
       <r>   -2.9289    1.0000 </r>
       <r>   -2.9234    1.0000 </r>
       <r>   -2.8891    1.0000 </r>
       <r>   -2.8688    1.0000 </r>
       <r>   -2.8637    1.0000 </r>
       <r>   -2.8610    1.0000 </r>
       <r>   -2.8572    1.0000 </r>
       <r>   -2.8470    1.0000 </r>
       <r>   -2.8451    1.0000 </r>
       <r>   -2.8382    1.0000 </r>
       <r>   -2.8281    1.0000 </r>
       <r>   -2.7775    1.0000 </r>
       <r>   -2.7732    1.0000 </r>
       <r>   -2.7709    1.0000 </r>
       <r>   -2.7638    1.0000 </r>
       <r>   -2.7464    1.0000 </r>
       <r>   -2.7383    1.0000 </r>
       <r>   -2.7222    1.0000 </r>
       <r>   -2.7201    1.0000 </r>
       <r>   -2.7151    1.0000 </r>
       <r>   -2.7127    1.0000 </r>
       <r>   -2.7064    1.0000 </r>
       <r>   -2.7027    1.0000 </r>
       <r>   -2.6950    1.0000 </r>
       <r>   -2.6834    1.0000 </r>
       <r>   -2.6813    1.0000 </r>
       <r>   -2.6800    1.0000 </r>
       <r>   -2.6477    1.0000 </r>
       <r>   -2.6252    1.0000 </r>
       <r>   -2.6214    1.0000 </r>
       <r>   -2.5987    1.0000 </r>
       <r>   -2.5408    1.0000 </r>
       <r>   -2.5369    1.0000 </r>
       <r>   -2.4892    1.0000 </r>
       <r>   -2.4858    1.0000 </r>
       <r>   -2.4402    1.0000 </r>
       <r>   -2.4382    1.0000 </r>
       <r>   -2.4373    1.0000 </r>
       <r>   -2.4050    1.0000 </r>
       <r>   -2.3839    1.0000 </r>
       <r>   -2.3799    1.0000 </r>
       <r>   -2.3774    1.0000 </r>
       <r>   -2.3749    1.0000 </r>
       <r>   -2.3671    1.0000 </r>
       <r>   -2.3625    1.0000 </r>
       <r>   -2.3569    1.0000 </r>
       <r>   -2.3388    1.0000 </r>
       <r>   -2.3377    1.0000 </r>
       <r>   -2.2989    1.0000 </r>
       <r>   -2.2954    1.0000 </r>
       <r>   -2.2786    1.0000 </r>
       <r>   -2.2493    1.0000 </r>
       <r>   -2.2149    1.0000 </r>
       <r>   -2.2107    1.0000 </r>
       <r>   -2.1989    1.0000 </r>
       <r>   -2.1949    1.0000 </r>
       <r>   -2.1924    1.0000 </r>
       <r>   -2.1894    1.0000 </r>
       <r>   -2.1863    1.0000 </r>
       <r>   -2.1671    1.0000 </r>
       <r>   -2.1657    1.0000 </r>
       <r>   -2.1638    1.0000 </r>
       <r>   -2.1626    1.0000 </r>
       <r>   -2.1541    1.0000 </r>
       <r>   -2.1527    1.0000 </r>
       <r>   -2.1492    1.0000 </r>
       <r>   -2.1479    1.0000 </r>
       <r>   -2.0749    1.0000 </r>
       <r>   -2.0700    1.0000 </r>
       <r>   -2.0580    1.0000 </r>
       <r>   -2.0415    1.0000 </r>
       <r>   -2.0408    1.0000 </r>
       <r>   -2.0352    1.0000 </r>
       <r>   -2.0257    1.0000 </r>
       <r>   -2.0134    1.0000 </r>
       <r>   -2.0131    1.0000 </r>
       <r>   -1.9975    1.0000 </r>
       <r>   -1.9970    1.0000 </r>
       <r>   -1.9748    1.0000 </r>
       <r>   -1.9722    1.0000 </r>
       <r>   -1.9699    1.0000 </r>
       <r>   -1.9662    1.0000 </r>
       <r>   -1.9568    1.0000 </r>
       <r>   -1.9556    1.0000 </r>
       <r>   -1.9451    1.0000 </r>
       <r>   -1.9355    1.0000 </r>
       <r>   -1.8898    1.0000 </r>
       <r>   -1.7107    1.0000 </r>
       <r>   -1.6175    1.0000 </r>
       <r>   -1.5856    1.0000 </r>
       <r>   -1.3395    1.0000 </r>
       <r>   -1.3380    1.0000 </r>
       <r>   -1.0053    0.9990 </r>
       <r>   -1.0029    0.9990 </r>
       <r>   -0.8581    0.9951 </r>
       <r>   -0.6746    1.0484 </r>
       <r>   -0.6738    1.0487 </r>
       <r>   -0.5282    0.8219 </r>
       <r>   -0.5233    0.8015 </r>
       <r>    0.0406    0.0020 </r>
       <r>    0.2486    0.0000 </r>
       <r>    0.2531    0.0000 </r>
       <r>    0.4371    0.0000 </r>
       <r>    0.4386    0.0000 </r>
       <r>    0.5299    0.0000 </r>
       <r>    0.5339    0.0000 </r>
       <r>    0.7106    0.0000 </r>
       <r>    0.7205    0.0000 </r>
       <r>    0.9401    0.0000 </r>
       <r>    0.9435    0.0000 </r>
       <r>    1.3622    0.0000 </r>
       <r>    1.5108    0.0000 </r>
       <r>    1.5221    0.0000 </r>
       <r>    1.5814    0.0000 </r>
       <r>    1.7969    0.0000 </r>
       <r>    2.3250    0.0000 </r>
       <r>    2.6476    0.0000 </r>
       <r>    2.6541    0.0000 </r>
       <r>    2.7654    0.0000 </r>
       <r>    2.7732    0.0000 </r>
       <r>    3.1080    0.0000 </r>
       <r>    3.1102    0.0000 </r>
       <r>    3.4198    0.0000 </r>
       <r>    3.4728    0.0000 </r>
       <r>    3.5518    0.0000 </r>
       <r>    3.5531    0.0000 </r>
       <r>    3.8501    0.0000 </r>
       <r>    4.1510    0.0000 </r>
       <r>    4.1586    0.0000 </r>
       <r>    4.3514    0.0000 </r>
       <r>    4.4864    0.0000 </r>
       <r>    4.4887    0.0000 </r>
       <r>    4.8006    0.0000 </r>
       <r>    5.0530    0.0000 </r>
       <r>    5.0557    0.0000 </r>
       <r>    5.1232    0.0000 </r>
       <r>    5.4120    0.0000 </r>
       <r>    5.4126    0.0000 </r>
       <r>    5.4961    0.0000 </r>
       <r>    5.5048    0.0000 </r>
       <r>    5.5092    0.0000 </r>
      </set>
      <set comment="kpoint 7">
       <r>   -8.2298    1.0000 </r>
       <r>   -7.6157    1.0000 </r>
       <r>   -7.6102    1.0000 </r>
       <r>   -7.0256    1.0000 </r>
       <r>   -6.7319    1.0000 </r>
       <r>   -6.1980    1.0000 </r>
       <r>   -6.1871    1.0000 </r>
       <r>   -5.6881    1.0000 </r>
       <r>   -5.1021    1.0000 </r>
       <r>   -5.0948    1.0000 </r>
       <r>   -4.9602    1.0000 </r>
       <r>   -4.9188    1.0000 </r>
       <r>   -4.9096    1.0000 </r>
       <r>   -4.8665    1.0000 </r>
       <r>   -4.8373    1.0000 </r>
       <r>   -4.8349    1.0000 </r>
       <r>   -4.8090    1.0000 </r>
       <r>   -4.6580    1.0000 </r>
       <r>   -4.6427    1.0000 </r>
       <r>   -4.6374    1.0000 </r>
       <r>   -4.6203    1.0000 </r>
       <r>   -4.6169    1.0000 </r>
       <r>   -4.4957    1.0000 </r>
       <r>   -4.4932    1.0000 </r>
       <r>   -4.4630    1.0000 </r>
       <r>   -4.4560    1.0000 </r>
       <r>   -4.4258    1.0000 </r>
       <r>   -4.4198    1.0000 </r>
       <r>   -4.4088    1.0000 </r>
       <r>   -4.4057    1.0000 </r>
       <r>   -4.3375    1.0000 </r>
       <r>   -4.3171    1.0000 </r>
       <r>   -4.3124    1.0000 </r>
       <r>   -4.3079    1.0000 </r>
       <r>   -4.2624    1.0000 </r>
       <r>   -4.2576    1.0000 </r>
       <r>   -4.2376    1.0000 </r>
       <r>   -4.1811    1.0000 </r>
       <r>   -4.1789    1.0000 </r>
       <r>   -4.1710    1.0000 </r>
       <r>   -4.1247    1.0000 </r>
       <r>   -4.0028    1.0000 </r>
       <r>   -3.9640    1.0000 </r>
       <r>   -3.9261    1.0000 </r>
       <r>   -3.9232    1.0000 </r>
       <r>   -3.8619    1.0000 </r>
       <r>   -3.8513    1.0000 </r>
       <r>   -3.8363    1.0000 </r>
       <r>   -3.8301    1.0000 </r>
       <r>   -3.8241    1.0000 </r>
       <r>   -3.8077    1.0000 </r>
       <r>   -3.8031    1.0000 </r>
       <r>   -3.7683    1.0000 </r>
       <r>   -3.7594    1.0000 </r>
       <r>   -3.7271    1.0000 </r>
       <r>   -3.6427    1.0000 </r>
       <r>   -3.6339    1.0000 </r>
       <r>   -3.6257    1.0000 </r>
       <r>   -3.6185    1.0000 </r>
       <r>   -3.5814    1.0000 </r>
       <r>   -3.5738    1.0000 </r>
       <r>   -3.5391    1.0000 </r>
       <r>   -3.5368    1.0000 </r>
       <r>   -3.4980    1.0000 </r>
       <r>   -3.4872    1.0000 </r>
       <r>   -3.4716    1.0000 </r>
       <r>   -3.4625    1.0000 </r>
       <r>   -3.4503    1.0000 </r>
       <r>   -3.4409    1.0000 </r>
       <r>   -3.3944    1.0000 </r>
       <r>   -3.3844    1.0000 </r>
       <r>   -3.3638    1.0000 </r>
       <r>   -3.3600    1.0000 </r>
       <r>   -3.3500    1.0000 </r>
       <r>   -3.3401    1.0000 </r>
       <r>   -3.3058    1.0000 </r>
       <r>   -3.2712    1.0000 </r>
       <r>   -3.2641    1.0000 </r>
       <r>   -3.2608    1.0000 </r>
       <r>   -3.2555    1.0000 </r>
       <r>   -3.2531    1.0000 </r>
       <r>   -3.2450    1.0000 </r>
       <r>   -3.1891    1.0000 </r>
       <r>   -3.1765    1.0000 </r>
       <r>   -3.1719    1.0000 </r>
       <r>   -3.1536    1.0000 </r>
       <r>   -3.1352    1.0000 </r>
       <r>   -3.1331    1.0000 </r>
       <r>   -3.1041    1.0000 </r>
       <r>   -3.0999    1.0000 </r>
       <r>   -3.0765    1.0000 </r>
       <r>   -3.0706    1.0000 </r>
       <r>   -3.0675    1.0000 </r>
       <r>   -3.0311    1.0000 </r>
       <r>   -3.0270    1.0000 </r>
       <r>   -2.9781    1.0000 </r>
       <r>   -2.9651    1.0000 </r>
       <r>   -2.9625    1.0000 </r>
       <r>   -2.9447    1.0000 </r>
       <r>   -2.9291    1.0000 </r>
       <r>   -2.9235    1.0000 </r>
       <r>   -2.8895    1.0000 </r>
       <r>   -2.8694    1.0000 </r>
       <r>   -2.8634    1.0000 </r>
       <r>   -2.8608    1.0000 </r>
       <r>   -2.8570    1.0000 </r>
       <r>   -2.8464    1.0000 </r>
       <r>   -2.8452    1.0000 </r>
       <r>   -2.8388    1.0000 </r>
       <r>   -2.8267    1.0000 </r>
       <r>   -2.7770    1.0000 </r>
       <r>   -2.7737    1.0000 </r>
       <r>   -2.7708    1.0000 </r>
       <r>   -2.7630    1.0000 </r>
       <r>   -2.7471    1.0000 </r>
       <r>   -2.7383    1.0000 </r>
       <r>   -2.7230    1.0000 </r>
       <r>   -2.7192    1.0000 </r>
       <r>   -2.7138    1.0000 </r>
       <r>   -2.7122    1.0000 </r>
       <r>   -2.7065    1.0000 </r>
       <r>   -2.7032    1.0000 </r>
       <r>   -2.6965    1.0000 </r>
       <r>   -2.6837    1.0000 </r>
       <r>   -2.6810    1.0000 </r>
       <r>   -2.6801    1.0000 </r>
       <r>   -2.6480    1.0000 </r>
       <r>   -2.6235    1.0000 </r>
       <r>   -2.6224    1.0000 </r>
       <r>   -2.5997    1.0000 </r>
       <r>   -2.5410    1.0000 </r>
       <r>   -2.5360    1.0000 </r>
       <r>   -2.4889    1.0000 </r>
       <r>   -2.4861    1.0000 </r>
       <r>   -2.4402    1.0000 </r>
       <r>   -2.4386    1.0000 </r>
       <r>   -2.4376    1.0000 </r>
       <r>   -2.4048    1.0000 </r>
       <r>   -2.3835    1.0000 </r>
       <r>   -2.3807    1.0000 </r>
       <r>   -2.3782    1.0000 </r>
       <r>   -2.3746    1.0000 </r>
       <r>   -2.3666    1.0000 </r>
       <r>   -2.3628    1.0000 </r>
       <r>   -2.3564    1.0000 </r>
       <r>   -2.3389    1.0000 </r>
       <r>   -2.3376    1.0000 </r>
       <r>   -2.2987    1.0000 </r>
       <r>   -2.2954    1.0000 </r>
       <r>   -2.2786    1.0000 </r>
       <r>   -2.2493    1.0000 </r>
       <r>   -2.2149    1.0000 </r>
       <r>   -2.2106    1.0000 </r>
       <r>   -2.1993    1.0000 </r>
       <r>   -2.1951    1.0000 </r>
       <r>   -2.1925    1.0000 </r>
       <r>   -2.1892    1.0000 </r>
       <r>   -2.1861    1.0000 </r>
       <r>   -2.1669    1.0000 </r>
       <r>   -2.1656    1.0000 </r>
       <r>   -2.1638    1.0000 </r>
       <r>   -2.1625    1.0000 </r>
       <r>   -2.1540    1.0000 </r>
       <r>   -2.1524    1.0000 </r>
       <r>   -2.1495    1.0000 </r>
       <r>   -2.1478    1.0000 </r>
       <r>   -2.0746    1.0000 </r>
       <r>   -2.0703    1.0000 </r>
       <r>   -2.0582    1.0000 </r>
       <r>   -2.0418    1.0000 </r>
       <r>   -2.0407    1.0000 </r>
       <r>   -2.0351    1.0000 </r>
       <r>   -2.0259    1.0000 </r>
       <r>   -2.0133    1.0000 </r>
       <r>   -2.0130    1.0000 </r>
       <r>   -1.9976    1.0000 </r>
       <r>   -1.9970    1.0000 </r>
       <r>   -1.9749    1.0000 </r>
       <r>   -1.9729    1.0000 </r>
       <r>   -1.9693    1.0000 </r>
       <r>   -1.9659    1.0000 </r>
       <r>   -1.9571    1.0000 </r>
       <r>   -1.9553    1.0000 </r>
       <r>   -1.9452    1.0000 </r>
       <r>   -1.9355    1.0000 </r>
       <r>   -1.8898    1.0000 </r>
       <r>   -1.7107    1.0000 </r>
       <r>   -1.6175    1.0000 </r>
       <r>   -1.5857    1.0000 </r>
       <r>   -1.3394    1.0000 </r>
       <r>   -1.3380    1.0000 </r>
       <r>   -1.0048    0.9990 </r>
       <r>   -1.0033    0.9990 </r>
       <r>   -0.8582    0.9951 </r>
       <r>   -0.6747    1.0484 </r>
       <r>   -0.6737    1.0487 </r>
       <r>   -0.5291    0.8256 </r>
       <r>   -0.5221    0.7966 </r>
       <r>    0.0406    0.0020 </r>
       <r>    0.2484    0.0000 </r>
       <r>    0.2531    0.0000 </r>
       <r>    0.4370    0.0000 </r>
       <r>    0.4385    0.0000 </r>
       <r>    0.5298    0.0000 </r>
       <r>    0.5338    0.0000 </r>
       <r>    0.7110    0.0000 </r>
       <r>    0.7202    0.0000 </r>
       <r>    0.9406    0.0000 </r>
       <r>    0.9432    0.0000 </r>
       <r>    1.3623    0.0000 </r>
       <r>    1.5131    0.0000 </r>
       <r>    1.5218    0.0000 </r>
       <r>    1.5795    0.0000 </r>
       <r>    1.7969    0.0000 </r>
       <r>    2.3253    0.0000 </r>
       <r>    2.6466    0.0000 </r>
       <r>    2.6551    0.0000 </r>
       <r>    2.7645    0.0000 </r>
       <r>    2.7740    0.0000 </r>
       <r>    3.1083    0.0000 </r>
       <r>    3.1104    0.0000 </r>
       <r>    3.4198    0.0000 </r>
       <r>    3.4713    0.0000 </r>
       <r>    3.5510    0.0000 </r>
       <r>    3.5546    0.0000 </r>
       <r>    3.8501    0.0000 </r>
       <r>    4.1507    0.0000 </r>
       <r>    4.1591    0.0000 </r>
       <r>    4.3517    0.0000 </r>
       <r>    4.4865    0.0000 </r>
       <r>    4.4886    0.0000 </r>
       <r>    4.8006    0.0000 </r>
       <r>    5.0531    0.0000 </r>
       <r>    5.0556    0.0000 </r>
       <r>    5.1233    0.0000 </r>
       <r>    5.4120    0.0000 </r>
       <r>    5.4144    0.0000 </r>
       <r>    5.4942    0.0000 </r>
       <r>    5.5083    0.0000 </r>
       <r>    6.0841    0.0000 </r>
      </set>
      <set comment="kpoint 8">
       <r>   -8.5499    1.0000 </r>
       <r>   -7.9218    1.0000 </r>
       <r>   -7.0269    1.0000 </r>
       <r>   -6.7628    1.0000 </r>
       <r>   -6.4740    1.0000 </r>
       <r>   -6.2419    1.0000 </r>
       <r>   -5.8236    1.0000 </r>
       <r>   -5.5564    1.0000 </r>
       <r>   -5.4323    1.0000 </r>
       <r>   -5.2892    1.0000 </r>
       <r>   -5.1944    1.0000 </r>
       <r>   -5.1236    1.0000 </r>
       <r>   -5.0950    1.0000 </r>
       <r>   -5.0866    1.0000 </r>
       <r>   -4.8445    1.0000 </r>
       <r>   -4.8158    1.0000 </r>
       <r>   -4.8097    1.0000 </r>
       <r>   -4.7552    1.0000 </r>
       <r>   -4.7463    1.0000 </r>
       <r>   -4.7053    1.0000 </r>
       <r>   -4.5963    1.0000 </r>
       <r>   -4.5448    1.0000 </r>
       <r>   -4.5352    1.0000 </r>
       <r>   -4.4993    1.0000 </r>
       <r>   -4.4684    1.0000 </r>
       <r>   -4.4316    1.0000 </r>
       <r>   -4.4209    1.0000 </r>
       <r>   -4.4126    1.0000 </r>
       <r>   -4.3987    1.0000 </r>
       <r>   -4.3693    1.0000 </r>
       <r>   -4.3510    1.0000 </r>
       <r>   -4.3455    1.0000 </r>
       <r>   -4.2551    1.0000 </r>
       <r>   -4.2494    1.0000 </r>
       <r>   -4.1724    1.0000 </r>
       <r>   -4.1614    1.0000 </r>
       <r>   -4.1374    1.0000 </r>
       <r>   -4.1297    1.0000 </r>
       <r>   -4.0675    1.0000 </r>
       <r>   -4.0650    1.0000 </r>
       <r>   -4.0463    1.0000 </r>
       <r>   -4.0204    1.0000 </r>
       <r>   -4.0104    1.0000 </r>
       <r>   -3.9454    1.0000 </r>
       <r>   -3.9403    1.0000 </r>
       <r>   -3.9300    1.0000 </r>
       <r>   -3.8770    1.0000 </r>
       <r>   -3.8379    1.0000 </r>
       <r>   -3.8353    1.0000 </r>
       <r>   -3.8167    1.0000 </r>
       <r>   -3.8077    1.0000 </r>
       <r>   -3.7511    1.0000 </r>
       <r>   -3.7062    1.0000 </r>
       <r>   -3.6955    1.0000 </r>
       <r>   -3.6824    1.0000 </r>
       <r>   -3.6583    1.0000 </r>
       <r>   -3.6513    1.0000 </r>
       <r>   -3.6380    1.0000 </r>
       <r>   -3.5910    1.0000 </r>
       <r>   -3.5869    1.0000 </r>
       <r>   -3.5686    1.0000 </r>
       <r>   -3.5642    1.0000 </r>
       <r>   -3.5514    1.0000 </r>
       <r>   -3.5438    1.0000 </r>
       <r>   -3.5332    1.0000 </r>
       <r>   -3.5256    1.0000 </r>
       <r>   -3.5096    1.0000 </r>
       <r>   -3.4358    1.0000 </r>
       <r>   -3.3965    1.0000 </r>
       <r>   -3.3659    1.0000 </r>
       <r>   -3.3579    1.0000 </r>
       <r>   -3.3519    1.0000 </r>
       <r>   -3.3328    1.0000 </r>
       <r>   -3.3210    1.0000 </r>
       <r>   -3.2725    1.0000 </r>
       <r>   -3.2516    1.0000 </r>
       <r>   -3.2265    1.0000 </r>
       <r>   -3.2239    1.0000 </r>
       <r>   -3.2129    1.0000 </r>
       <r>   -3.2087    1.0000 </r>
       <r>   -3.2018    1.0000 </r>
       <r>   -3.1979    1.0000 </r>
       <r>   -3.1889    1.0000 </r>
       <r>   -3.1871    1.0000 </r>
       <r>   -3.1692    1.0000 </r>
       <r>   -3.1573    1.0000 </r>
       <r>   -3.1434    1.0000 </r>
       <r>   -3.1389    1.0000 </r>
       <r>   -3.1171    1.0000 </r>
       <r>   -3.1107    1.0000 </r>
       <r>   -3.1055    1.0000 </r>
       <r>   -3.0831    1.0000 </r>
       <r>   -3.0764    1.0000 </r>
       <r>   -3.0426    1.0000 </r>
       <r>   -3.0356    1.0000 </r>
       <r>   -3.0085    1.0000 </r>
       <r>   -2.9830    1.0000 </r>
       <r>   -2.9798    1.0000 </r>
       <r>   -2.9205    1.0000 </r>
       <r>   -2.9066    1.0000 </r>
       <r>   -2.8727    1.0000 </r>
       <r>   -2.8694    1.0000 </r>
       <r>   -2.8589    1.0000 </r>
       <r>   -2.8533    1.0000 </r>
       <r>   -2.8464    1.0000 </r>
       <r>   -2.8421    1.0000 </r>
       <r>   -2.8244    1.0000 </r>
       <r>   -2.8189    1.0000 </r>
       <r>   -2.8087    1.0000 </r>
       <r>   -2.7901    1.0000 </r>
       <r>   -2.7806    1.0000 </r>
       <r>   -2.7672    1.0000 </r>
       <r>   -2.7353    1.0000 </r>
       <r>   -2.7202    1.0000 </r>
       <r>   -2.7167    1.0000 </r>
       <r>   -2.7096    1.0000 </r>
       <r>   -2.7068    1.0000 </r>
       <r>   -2.6989    1.0000 </r>
       <r>   -2.6745    1.0000 </r>
       <r>   -2.6681    1.0000 </r>
       <r>   -2.6541    1.0000 </r>
       <r>   -2.6360    1.0000 </r>
       <r>   -2.6268    1.0000 </r>
       <r>   -2.6201    1.0000 </r>
       <r>   -2.6144    1.0000 </r>
       <r>   -2.5529    1.0000 </r>
       <r>   -2.5237    1.0000 </r>
       <r>   -2.5074    1.0000 </r>
       <r>   -2.4993    1.0000 </r>
       <r>   -2.4969    1.0000 </r>
       <r>   -2.4812    1.0000 </r>
       <r>   -2.4696    1.0000 </r>
       <r>   -2.4530    1.0000 </r>
       <r>   -2.4433    1.0000 </r>
       <r>   -2.4337    1.0000 </r>
       <r>   -2.4300    1.0000 </r>
       <r>   -2.4257    1.0000 </r>
       <r>   -2.4200    1.0000 </r>
       <r>   -2.3993    1.0000 </r>
       <r>   -2.3933    1.0000 </r>
       <r>   -2.3906    1.0000 </r>
       <r>   -2.3868    1.0000 </r>
       <r>   -2.3726    1.0000 </r>
       <r>   -2.3714    1.0000 </r>
       <r>   -2.3501    1.0000 </r>
       <r>   -2.3472    1.0000 </r>
       <r>   -2.3279    1.0000 </r>
       <r>   -2.3202    1.0000 </r>
       <r>   -2.2927    1.0000 </r>
       <r>   -2.2864    1.0000 </r>
       <r>   -2.2804    1.0000 </r>
       <r>   -2.2476    1.0000 </r>
       <r>   -2.2308    1.0000 </r>
       <r>   -2.2244    1.0000 </r>
       <r>   -2.2154    1.0000 </r>
       <r>   -2.2131    1.0000 </r>
       <r>   -2.1772    1.0000 </r>
       <r>   -2.1722    1.0000 </r>
       <r>   -2.1504    1.0000 </r>
       <r>   -2.1496    1.0000 </r>
       <r>   -2.1472    1.0000 </r>
       <r>   -2.1384    1.0000 </r>
       <r>   -2.1334    1.0000 </r>
       <r>   -2.1291    1.0000 </r>
       <r>   -2.1243    1.0000 </r>
       <r>   -2.1104    1.0000 </r>
       <r>   -2.0928    1.0000 </r>
       <r>   -2.0896    1.0000 </r>
       <r>   -2.0874    1.0000 </r>
       <r>   -2.0862    1.0000 </r>
       <r>   -2.0762    1.0000 </r>
       <r>   -2.0640    1.0000 </r>
       <r>   -2.0617    1.0000 </r>
       <r>   -2.0574    1.0000 </r>
       <r>   -2.0428    1.0000 </r>
       <r>   -2.0230    1.0000 </r>
       <r>   -2.0041    1.0000 </r>
       <r>   -1.9940    1.0000 </r>
       <r>   -1.9832    1.0000 </r>
       <r>   -1.9797    1.0000 </r>
       <r>   -1.9694    1.0000 </r>
       <r>   -1.9383    1.0000 </r>
       <r>   -1.9285    1.0000 </r>
       <r>   -1.9256    1.0000 </r>
       <r>   -1.9103    1.0000 </r>
       <r>   -1.8863    1.0000 </r>
       <r>   -1.8357    1.0000 </r>
       <r>   -1.7990    1.0000 </r>
       <r>   -1.7712    1.0000 </r>
       <r>   -1.7127    1.0000 </r>
       <r>   -1.6725    1.0000 </r>
       <r>   -1.6064    1.0000 </r>
       <r>   -1.5368    1.0000 </r>
       <r>   -1.1844    1.0000 </r>
       <r>   -1.0942    0.9999 </r>
       <r>   -0.9599    0.9979 </r>
       <r>   -0.7879    1.0030 </r>
       <r>   -0.3618    0.0605 </r>
       <r>   -0.1825   -0.0192 </r>
       <r>   -0.1690   -0.0135 </r>
       <r>   -0.0940    0.0036 </r>
       <r>    0.0073    0.0031 </r>
       <r>    0.1494    0.0002 </r>
       <r>    0.3517    0.0000 </r>
       <r>    0.5830    0.0000 </r>
       <r>    0.7814    0.0000 </r>
       <r>    1.1582    0.0000 </r>
       <r>    1.3045    0.0000 </r>
       <r>    1.5702    0.0000 </r>
       <r>    1.5883    0.0000 </r>
       <r>    2.0710    0.0000 </r>
       <r>    2.1671    0.0000 </r>
       <r>    2.2306    0.0000 </r>
       <r>    2.2548    0.0000 </r>
       <r>    2.2695    0.0000 </r>
       <r>    2.6015    0.0000 </r>
       <r>    2.7156    0.0000 </r>
       <r>    2.8002    0.0000 </r>
       <r>    3.2493    0.0000 </r>
       <r>    3.2582    0.0000 </r>
       <r>    3.5298    0.0000 </r>
       <r>    3.6602    0.0000 </r>
       <r>    3.6918    0.0000 </r>
       <r>    3.7473    0.0000 </r>
       <r>    3.9020    0.0000 </r>
       <r>    3.9814    0.0000 </r>
       <r>    4.1682    0.0000 </r>
       <r>    4.4602    0.0000 </r>
       <r>    4.4934    0.0000 </r>
       <r>    4.5248    0.0000 </r>
       <r>    4.5475    0.0000 </r>
       <r>    4.8486    0.0000 </r>
       <r>    4.9994    0.0000 </r>
       <r>    5.0681    0.0000 </r>
       <r>    5.1046    0.0000 </r>
       <r>    5.1811    0.0000 </r>
       <r>    5.3411    0.0000 </r>
       <r>    5.4574    0.0000 </r>
       <r>    5.4721    0.0000 </r>
       <r>    5.8445    0.0000 </r>
      </set>
     </set>
    </set>
   </array>
  </eigenvalues>
  <separator name="orbital magnetization" >
   <v name="MAGDIPOLOUT">      0.00000000      0.00000000      0.00000000</v>
  </separator>
  <dos>
   <i name="efermi">     -0.46205157 </i>
   <total>
    <array>
     <dimension dim="1">gridpoints</dimension>
     <dimension dim="2">spin</dimension>
     <field>energy</field>
     <field>total</field>
     <field>integrated</field>
     <set>
      <set comment="spin 1">
       <r>   -10.8743     0.0000     0.0000 </r>
       <r>   -10.8111     0.0000     0.0000 </r>
       <r>   -10.7479     0.0000     0.0000 </r>
       <r>   -10.6847     0.0000     0.0000 </r>
       <r>   -10.6215     0.0000     0.0000 </r>
       <r>   -10.5583     0.0000     0.0000 </r>
       <r>   -10.4951     0.0000     0.0000 </r>
       <r>   -10.4319     0.0000     0.0000 </r>
       <r>   -10.3687     0.0000     0.0000 </r>
       <r>   -10.3055     0.0000     0.0000 </r>
       <r>   -10.2423     0.0000     0.0000 </r>
       <r>   -10.1791     0.0000     0.0000 </r>
       <r>   -10.1159     0.0000     0.0000 </r>
       <r>   -10.0527     0.0000     0.0000 </r>
       <r>    -9.9896     0.0000     0.0000 </r>
       <r>    -9.9264     0.0000     0.0000 </r>
       <r>    -9.8632     0.0000     0.0000 </r>
       <r>    -9.8000     0.0000     0.0000 </r>
       <r>    -9.7368     0.0000     0.0000 </r>
       <r>    -9.6736     0.0000     0.0000 </r>
       <r>    -9.6104     0.0000     0.0000 </r>
       <r>    -9.5472     0.0003     0.0000 </r>
       <r>    -9.4840     0.0015     0.0001 </r>
       <r>    -9.4208     0.0055     0.0005 </r>
       <r>    -9.3576     0.0135     0.0013 </r>
       <r>    -9.2944     0.0169     0.0024 </r>
       <r>    -9.2312    -0.0172     0.0013 </r>
       <r>    -9.1680    -0.1225    -0.0064 </r>
       <r>    -9.1048    -0.2174    -0.0202 </r>
       <r>    -9.0416    -0.0053    -0.0205 </r>
       <r>    -8.9784     0.7917     0.0295 </r>
       <r>    -8.9152     1.8837     0.1485 </r>
       <r>    -8.8520     2.3680     0.2982 </r>
       <r>    -8.7889     1.7530     0.4090 </r>
       <r>    -8.7257     0.9256     0.4675 </r>
       <r>    -8.6625     1.3898     0.5553 </r>
       <r>    -8.5993     3.2865     0.7630 </r>
       <r>    -8.5361     4.8336     1.0684 </r>
       <r>    -8.4729     4.3583     1.3439 </r>
       <r>    -8.4097     2.4199     1.4968 </r>
       <r>    -8.3465     1.0704     1.5644 </r>
       <r>    -8.2833     1.2622     1.6442 </r>
       <r>    -8.2201     1.9356     1.7665 </r>
       <r>    -8.1569     1.8034     1.8805 </r>
       <r>    -8.0937     1.2421     1.9590 </r>
       <r>    -8.0305     1.7061     2.0668 </r>
       <r>    -7.9673     3.4289     2.2835 </r>
       <r>    -7.9041     4.6883     2.5797 </r>
       <r>    -7.8409     4.0068     2.8330 </r>
       <r>    -7.7777     2.3556     2.9818 </r>
       <r>    -7.7145     2.0028     3.1084 </r>
       <r>    -7.6513     3.4191     3.3244 </r>
       <r>    -7.5882     4.6567     3.6187 </r>
       <r>    -7.5250     4.0928     3.8774 </r>
       <r>    -7.4618     2.5015     4.0355 </r>
       <r>    -7.3986     1.5629     4.1342 </r>
       <r>    -7.3354     1.4054     4.2230 </r>
       <r>    -7.2722     1.1202     4.2938 </r>
       <r>    -7.2090     1.2715     4.3742 </r>
       <r>    -7.1458     3.8246     4.6159 </r>
       <r>    -7.0826     8.6419     5.1620 </r>
       <r>    -7.0194    11.9819     5.9192 </r>
       <r>    -6.9562    10.7261     6.5970 </r>
       <r>    -6.8930     6.8297     7.0286 </r>
       <r>    -6.8298     4.7906     7.3314 </r>
       <r>    -6.7666     5.5962     7.6850 </r>
       <r>    -6.7034     6.2815     8.0820 </r>
       <r>    -6.6402     5.0480     8.4010 </r>
       <r>    -6.5770     3.4987     8.6221 </r>
       <r>    -6.5138     3.3159     8.8316 </r>
       <r>    -6.4506     3.7633     9.0694 </r>
       <r>    -6.3875     3.8723     9.3142 </r>
       <r>    -6.3243     4.6716     9.6094 </r>
       <r>    -6.2611     7.2410    10.0670 </r>
       <r>    -6.1979    10.1502    10.7084 </r>
       <r>    -6.1347    10.8011    11.3910 </r>
       <r>    -6.0715     8.5171    11.9292 </r>
       <r>    -6.0083     5.2784    12.2628 </r>
       <r>    -5.9451     3.9794    12.5143 </r>
       <r>    -5.8819     5.8646    12.8849 </r>
       <r>    -5.8187     9.0732    13.4582 </r>
       <r>    -5.7555    10.5616    14.1257 </r>
       <r>    -5.6923     9.7129    14.7395 </r>
       <r>    -5.6291     8.5821    15.2818 </r>
       <r>    -5.5659     8.7426    15.8343 </r>
       <r>    -5.5027     9.7530    16.4507 </r>
       <r>    -5.4395    10.6154    17.1215 </r>
       <r>    -5.3763    11.2012    17.8293 </r>
       <r>    -5.3131    12.3625    18.6106 </r>
       <r>    -5.2499    15.5080    19.5906 </r>
       <r>    -5.1868    21.1121    20.9248 </r>
       <r>    -5.1236    26.6185    22.6069 </r>
       <r>    -5.0604    28.0164    24.3774 </r>
       <r>    -4.9972    25.5501    25.9921 </r>
       <r>    -4.9340    24.8550    27.5628 </r>
       <r>    -4.8708    29.6928    29.4392 </r>
       <r>    -4.8076    36.9717    31.7756 </r>
       <r>    -4.7444    41.6518    34.4078 </r>
       <r>    -4.6812    43.2056    37.1382 </r>
       <r>    -4.6180    45.2771    39.9994 </r>
       <r>    -4.5548    51.9343    43.2814 </r>
       <r>    -4.4916    64.5816    47.3626 </r>
       <r>    -4.4284    79.4249    52.3819 </r>
       <r>    -4.3652    88.8388    57.9960 </r>
       <r>    -4.3020    88.3440    63.5789 </r>
       <r>    -4.2388    81.0299    68.6996 </r>
       <r>    -4.1756    73.1230    73.3206 </r>
       <r>    -4.1124    67.4391    77.5824 </r>
       <r>    -4.0492    63.4333    81.5910 </r>
       <r>    -3.9861    61.6623    85.4878 </r>
       <r>    -3.9229    64.5455    89.5667 </r>
       <r>    -3.8597    71.9738    94.1151 </r>
       <r>    -3.7965    79.7618    99.1556 </r>
       <r>    -3.7333    85.5299   104.5606 </r>
       <r>    -3.6701    92.5663   110.4103 </r>
       <r>    -3.6069   102.9403   116.9156 </r>
       <r>    -3.5437   110.3977   123.8922 </r>
       <r>    -3.4805   107.1371   130.6627 </r>
       <r>    -3.4173    96.5565   136.7645 </r>
       <r>    -3.3541    93.3547   142.6641 </r>
       <r>    -3.2909   109.3202   149.5725 </r>
       <r>    -3.2277   139.6940   158.4005 </r>
       <r>    -3.1645   163.7867   168.7509 </r>
       <r>    -3.1013   162.1742   178.9995 </r>
       <r>    -3.0381   136.3175   187.6140 </r>
       <r>    -2.9749   108.7719   194.4879 </r>
       <r>    -2.9117   101.8513   200.9243 </r>
       <r>    -2.8485   118.7972   208.4317 </r>
       <r>    -2.7854   145.4025   217.6204 </r>
       <r>    -2.7222   163.7886   227.9709 </r>
       <r>    -2.6590   164.5082   238.3670 </r>
       <r>    -2.5958   152.9617   248.0334 </r>
       <r>    -2.5326   145.0126   257.1974 </r>
       <r>    -2.4694   150.4481   266.7050 </r>
       <r>    -2.4062   162.1917   276.9546 </r>
       <r>    -2.3430   167.9454   287.5679 </r>
       <r>    -2.2798   169.1666   298.2583 </r>
       <r>    -2.2166   178.6460   309.5478 </r>
       <r>    -2.1534   199.5556   322.1587 </r>
       <r>    -2.0902   217.6749   335.9146 </r>
       <r>    -2.0270   215.9282   349.5601 </r>
       <r>    -1.9638   187.8342   361.4303 </r>
       <r>    -1.9006   138.7351   370.1976 </r>
       <r>    -1.8374    83.7021   375.4871 </r>
       <r>    -1.7742    41.4295   378.1053 </r>
       <r>    -1.7110    21.4936   379.4636 </r>
       <r>    -1.6478    18.2233   380.6152 </r>
       <r>    -1.5847    19.3962   381.8409 </r>
       <r>    -1.5215    17.8439   382.9686 </r>
       <r>    -1.4583    13.7040   383.8346 </r>
       <r>    -1.3951     9.7472   384.4505 </r>
       <r>    -1.3319     7.8633   384.9475 </r>
       <r>    -1.2687     8.8066   385.5040 </r>
       <r>    -1.2055    12.2003   386.2750 </r>
       <r>    -1.1423    16.0330   387.2882 </r>
       <r>    -1.0791    17.7925   388.4126 </r>
       <r>    -1.0159    16.7183   389.4691 </r>
       <r>    -0.9527    14.2824   390.3717 </r>
       <r>    -0.8895    12.5540   391.1650 </r>
       <r>    -0.8263    12.3486   391.9454 </r>
       <r>    -0.7631    12.6728   392.7462 </r>
       <r>    -0.6999    12.1167   393.5120 </r>
       <r>    -0.6367    10.8250   394.1960 </r>
       <r>    -0.5735    10.1931   394.8402 </r>
       <r>    -0.5103    10.4674   395.5017 </r>
       <r>    -0.4471    10.1903   396.1456 </r>
       <r>    -0.3839     8.8361   396.7040 </r>
       <r>    -0.3208     8.4797   397.2399 </r>
       <r>    -0.2576    11.2597   397.9515 </r>
       <r>    -0.1944    15.8711   398.9544 </r>
       <r>    -0.1312    18.4483   400.1203 </r>
       <r>    -0.0680    17.0426   401.1973 </r>
       <r>    -0.0048    13.4556   402.0476 </r>
       <r>     0.0584    10.4724   402.7094 </r>
       <r>     0.1216     9.1519   403.2878 </r>
       <r>     0.1848     9.0520   403.8598 </r>
       <r>     0.2480     9.4715   404.4583 </r>
       <r>     0.3112     9.9799   405.0890 </r>
       <r>     0.3744    10.4938   405.7522 </r>
       <r>     0.4376    11.1753   406.4584 </r>
       <r>     0.5008    12.1347   407.2252 </r>
       <r>     0.5640    13.2820   408.0646 </r>
       <r>     0.6272    14.5113   408.9816 </r>
       <r>     0.6904    15.6152   409.9684 </r>
       <r>     0.7536    15.8529   410.9703 </r>
       <r>     0.8168    14.3259   411.8756 </r>
       <r>     0.8799    11.0711   412.5752 </r>
       <r>     0.9431     7.2232   413.0317 </r>
       <r>     1.0063     4.3408   413.3060 </r>
       <r>     1.0695     3.9513   413.5557 </r>
       <r>     1.1327     6.5933   413.9724 </r>
       <r>     1.1959    10.5217   414.6373 </r>
       <r>     1.2591    12.5085   415.4278 </r>
       <r>     1.3223    10.9583   416.1203 </r>
       <r>     1.3855     8.0229   416.6273 </r>
       <r>     1.4487     7.9224   417.1279 </r>
       <r>     1.5119    12.4107   417.9122 </r>
       <r>     1.5751    18.2623   419.0663 </r>
       <r>     1.6383    20.5665   420.3660 </r>
       <r>     1.7015    17.9322   421.4992 </r>
       <r>     1.7647    12.7147   422.3027 </r>
       <r>     1.8279     7.3510   422.7673 </r>
       <r>     1.8911     2.9781   422.9555 </r>
       <r>     1.9543     0.6990   422.9996 </r>
       <r>     2.0175     1.7320   423.1091 </r>
       <r>     2.0806     6.3174   423.5083 </r>
       <r>     2.1438    13.1936   424.3421 </r>
       <r>     2.2070    19.4520   425.5713 </r>
       <r>     2.2702    21.2031   426.9113 </r>
       <r>     2.3334    16.4679   427.9519 </r>
       <r>     2.3966     7.9534   428.4546 </r>
       <r>     2.4598     1.4696   428.5474 </r>
       <r>     2.5230     1.1083   428.6175 </r>
       <r>     2.5862     6.4324   429.0240 </r>
       <r>     2.6494    13.6472   429.8864 </r>
       <r>     2.7126    18.4140   431.0501 </r>
       <r>     2.7758    18.1504   432.1971 </r>
       <r>     2.8390    13.4809   433.0490 </r>
       <r>     2.9022     8.0841   433.5599 </r>
       <r>     2.9654     5.8877   433.9319 </r>
       <r>     3.0286     7.7965   434.4246 </r>
       <r>     3.0918    11.7546   435.1675 </r>
       <r>     3.1550    15.3467   436.1373 </r>
       <r>     3.2182    17.0884   437.2172 </r>
       <r>     3.2813    16.3842   438.2526 </r>
       <r>     3.3445    14.3087   439.1568 </r>
       <r>     3.4077    13.7009   440.0227 </r>
       <r>     3.4709    16.5468   441.0683 </r>
       <r>     3.5341    21.5713   442.4315 </r>
       <r>     3.5973    25.5134   444.0438 </r>
       <r>     3.6605    26.0474   445.6899 </r>
       <r>     3.7237    22.9185   447.1382 </r>
       <r>     3.7869    17.7031   448.2570 </r>
       <r>     3.8501    12.9312   449.0741 </r>
       <r>     3.9133    10.1223   449.7138 </r>
       <r>     3.9765     8.9671   450.2805 </r>
       <r>     4.0397     9.0591   450.8530 </r>
       <r>     4.1029    10.4023   451.5104 </r>
       <r>     4.1661    11.4983   452.2370 </r>
       <r>     4.2293    10.2536   452.8850 </r>
       <r>     4.2925     8.1935   453.4028 </r>
       <r>     4.3557    10.2357   454.0496 </r>
       <r>     4.4189    17.9954   455.1868 </r>
       <r>     4.4820    25.8672   456.8215 </r>
       <r>     4.5452    26.5568   458.4997 </r>
       <r>     4.6084    19.5306   459.7340 </r>
       <r>     4.6716    11.3384   460.4505 </r>
       <r>     4.7348     7.6905   460.9365 </r>
       <r>     4.7980     8.0845   461.4474 </r>
       <r>     4.8612     9.2775   462.0337 </r>
       <r>     4.9244    11.3688   462.7521 </r>
       <r>     4.9876    17.2922   463.8449 </r>
       <r>     5.0508    26.4884   465.5188 </r>
       <r>     5.1140    32.6785   467.5839 </r>
       <r>     5.1772    30.4292   469.5069 </r>
       <r>     5.2404    22.2975   470.9160 </r>
       <r>     5.3036    16.7934   471.9773 </r>
       <r>     5.3668    19.1823   473.1895 </r>
       <r>     5.4300    25.8337   474.8220 </r>
       <r>     5.4932    28.3256   476.6121 </r>
       <r>     5.5564    22.3305   478.0232 </r>
       <r>     5.6196    11.4213   478.7450 </r>
       <r>     5.6827     2.5496   478.9061 </r>
       <r>     5.7459    -0.5404   478.8720 </r>
       <r>     5.8091     0.8858   478.9279 </r>
       <r>     5.8723     3.3856   479.1419 </r>
       <r>     5.9355     4.5472   479.4293 </r>
       <r>     5.9987     4.0443   479.6848 </r>
       <r>     6.0619     2.7752   479.8602 </r>
       <r>     6.1251     1.5673   479.9593 </r>
       <r>     6.1883     0.6925   480.0030 </r>
       <r>     6.2515     0.1505   480.0125 </r>
       <r>     6.3147    -0.0858   480.0071 </r>
       <r>     6.3779    -0.1016   480.0007 </r>
       <r>     6.4411    -0.0394   479.9982 </r>
       <r>     6.5043     0.0038   479.9984 </r>
       <r>     6.5675     0.0128   479.9993 </r>
       <r>     6.6307     0.0079   479.9998 </r>
       <r>     6.6939     0.0030   479.9999 </r>
       <r>     6.7571     0.0008   480.0000 </r>
       <r>     6.8203     0.0002   480.0000 </r>
       <r>     6.8834     0.0000   480.0000 </r>
       <r>     6.9466     0.0000   480.0000 </r>
       <r>     7.0098     0.0000   480.0000 </r>
       <r>     7.0730     0.0000   480.0000 </r>
       <r>     7.1362     0.0000   480.0000 </r>
       <r>     7.1994     0.0000   480.0000 </r>
       <r>     7.2626     0.0000   480.0000 </r>
       <r>     7.3258     0.0000   480.0000 </r>
       <r>     7.3890     0.0000   480.0000 </r>
       <r>     7.4522     0.0000   480.0000 </r>
       <r>     7.5154     0.0000   480.0000 </r>
       <r>     7.5786     0.0000   480.0000 </r>
       <r>     7.6418     0.0000   480.0000 </r>
       <r>     7.7050     0.0000   480.0000 </r>
       <r>     7.7682     0.0000   480.0000 </r>
       <r>     7.8314     0.0000   480.0000 </r>
       <r>     7.8946     0.0000   480.0000 </r>
       <r>     7.9578     0.0000   480.0000 </r>
       <r>     8.0210     0.0000   480.0000 </r>
       <r>     8.0841     0.0000   480.0000 </r>
      </set>
     </set>
    </array>
   </total>
  </dos>
 </calculation>
 <structure name="finalpos" >
  <crystal>
   <varray name="basis" >
    <v>       7.70037500       0.00000000       0.00000000 </v>
    <v>       0.00000000       7.70037500       0.00000000 </v>
    <v>       0.00000000       0.00000000      22.25999800 </v>
   </varray>
   <i name="volume">   1319.92383604 </i>
   <varray name="rec_basis" >
    <v>       0.12986381       0.00000000       0.00000000 </v>
    <v>       0.00000000       0.12986381       0.00000000 </v>
    <v>       0.00000000       0.00000000       0.04492363 </v>
   </varray>
  </crystal>
  <varray name="positions" >
   <v>       0.16666708       0.16666708       0.00000000 </v>
   <v>       0.50000110       0.16666708       0.00000000 </v>
   <v>       0.83333526       0.16666708       0.00000000 </v>
   <v>       0.16666708       0.50000110       0.00000000 </v>
   <v>       0.50000110       0.50000110       0.00000000 </v>
   <v>       0.83333526       0.50000110       0.00000000 </v>
   <v>       0.16666708       0.83333526       0.00000000 </v>
   <v>       0.50000110       0.83333526       0.00000000 </v>
   <v>       0.83333526       0.83333526       0.00000000 </v>
   <v>       0.00000000       0.00000000       0.08153640 </v>
   <v>       0.33333416       0.00000000       0.08153640 </v>
   <v>       0.66666818       0.00000000       0.08153640 </v>
   <v>       0.00000000       0.33333416       0.08153640 </v>
   <v>       0.33333416       0.33333416       0.08153640 </v>
   <v>       0.66666818       0.33333416       0.08153640 </v>
   <v>       0.00000000       0.66666818       0.08153640 </v>
   <v>       0.33333416       0.66666818       0.08153640 </v>
   <v>       0.66666818       0.66666818       0.08153640 </v>
   <v>       0.16749132       0.16755171       0.16633056 </v>
   <v>       0.50023135       0.16854569       0.16659426 </v>
   <v>       0.83382822       0.17046235       0.16772441 </v>
   <v>       0.16775183       0.49998007       0.16359364 </v>
   <v>       0.49814808       0.49989721       0.16238928 </v>
   <v>       0.83170417       0.50060588       0.16558160 </v>
   <v>       0.16698693       0.83269425       0.16625136 </v>
   <v>       0.49959450       0.83143159       0.16657733 </v>
   <v>       0.83341318       0.83126432       0.16761520 </v>
   <v>       0.00132513       0.00111748       0.24773960 </v>
   <v>       0.33395555       0.99946665       0.24757473 </v>
   <v>       0.66657143       0.00089502       0.24789836 </v>
   <v>       0.00244988       0.33616610       0.24967743 </v>
   <v>       0.33544626       0.33422567       0.25154063 </v>
   <v>       0.66548343       0.33587572       0.25168187 </v>
   <v>       0.00045024       0.66549733       0.24947307 </v>
   <v>       0.33368154       0.66454491       0.25157729 </v>
   <v>       0.66443608       0.66598536       0.25129167 </v>
  </varray>
  <varray name="selective"  type="logical" >
   <v type="logical" >  F  F  F </v>
   <v type="logical" >  F  F  F </v>
   <v type="logical" >  F  F  F </v>
   <v type="logical" >  F  F  F </v>
   <v type="logical" >  F  F  F </v>
   <v type="logical" >  F  F  F </v>
   <v type="logical" >  F  F  F </v>
   <v type="logical" >  F  F  F </v>
   <v type="logical" >  F  F  F </v>
   <v type="logical" >  F  F  F </v>
   <v type="logical" >  F  F  F </v>
   <v type="logical" >  F  F  F </v>
   <v type="logical" >  F  F  F </v>
   <v type="logical" >  F  F  F </v>
   <v type="logical" >  F  F  F </v>
   <v type="logical" >  F  F  F </v>
   <v type="logical" >  F  F  F </v>
   <v type="logical" >  F  F  F </v>
   <v type="logical" >  T  T  T </v>
   <v type="logical" >  T  T  T </v>
   <v type="logical" >  T  T  T </v>
   <v type="logical" >  T  T  T </v>
   <v type="logical" >  T  T  T </v>
   <v type="logical" >  T  T  T </v>
   <v type="logical" >  T  T  T </v>
   <v type="logical" >  T  T  T </v>
   <v type="logical" >  T  T  T </v>
   <v type="logical" >  T  T  T </v>
   <v type="logical" >  T  T  T </v>
   <v type="logical" >  T  T  T </v>
   <v type="logical" >  T  T  T </v>
   <v type="logical" >  T  T  T </v>
   <v type="logical" >  T  T  T </v>
   <v type="logical" >  T  T  T </v>
   <v type="logical" >  T  T  T </v>
   <v type="logical" >  T  T  T </v>
  </varray>
  <nose>
   <v>      -3.00000000       0.00000000       0.00010000       0.00010000 </v>
  </nose>
 </structure>
</modeling>
