  36  36   0   0
  0.3666455E+02  0.7700375E-09  0.7700375E-09  0.2226000E-08  0.5000000E-15
  1.000000000000000E-004
  CAR 
 unknown system                          
      7.79485624    -10.76225489  301     -0.35055253      1.00000000
    -10.762  0.0000E+00  0.0000E+00
    -10.700  0.0000E+00  0.0000E+00
    -10.639  0.0000E+00  0.0000E+00
    -10.577  0.0000E+00  0.0000E+00
    -10.515  0.0000E+00  0.0000E+00
    -10.453  0.0000E+00  0.0000E+00
    -10.391  0.9108E-26  0.5634E-27
    -10.329  0.1122E-23  0.6995E-25
    -10.267  0.1142E-21  0.7135E-23
    -10.206  0.9545E-20  0.5975E-21
    -10.144  0.6543E-18  0.4107E-19
    -10.082  0.3676E-16  0.2315E-17
    -10.020  0.1691E-14  0.1069E-15
     -9.958  0.6363E-13  0.4043E-14
     -9.896  0.1960E-11  0.1253E-12
     -9.834  0.4913E-10  0.3164E-11
     -9.773  0.1003E-08  0.6518E-10
     -9.711  0.1661E-07  0.1092E-08
     -9.649  0.2225E-06  0.1485E-07
     -9.587  0.2400E-05  0.1633E-06
     -9.525  0.2072E-04  0.1445E-05
     -9.463  0.1417E-03  0.1021E-04
     -9.401  0.7576E-03  0.5708E-04
     -9.340  0.3087E-02  0.2480E-03
     -9.278  0.9120E-02  0.8122E-03
     -9.216  0.1712E-01  0.1871E-02
     -9.154  0.8815E-02  0.2417E-02
     -9.092 -0.5488E-01 -0.9783E-03
     -9.030 -0.1760E+00 -0.1187E-01
     -8.968 -0.1923E+00 -0.2376E-01
     -8.907  0.2222E+00 -0.1001E-01
     -8.845  0.1184E+01  0.6325E-01
     -8.783  0.2161E+01  0.1969E+00
     -8.721  0.2284E+01  0.3382E+00
     -8.659  0.1462E+01  0.4286E+00
     -8.597  0.8753E+00  0.4828E+00
     -8.535  0.1769E+01  0.5922E+00
     -8.474  0.3753E+01  0.8244E+00
     -8.412  0.4926E+01  0.1129E+01
     -8.350  0.4057E+01  0.1380E+01
     -8.288  0.2105E+01  0.1510E+01
     -8.226  0.1007E+01  0.1573E+01
     -8.164  0.1352E+01  0.1656E+01
     -8.102  0.1970E+01  0.1778E+01
     -8.041  0.1758E+01  0.1887E+01
     -7.979  0.1227E+01  0.1963E+01
     -7.917  0.1751E+01  0.2071E+01
     -7.855  0.3459E+01  0.2285E+01
     -7.793  0.4690E+01  0.2575E+01
     -7.731  0.4049E+01  0.2825E+01
     -7.669  0.2418E+01  0.2975E+01
     -7.608  0.1955E+01  0.3096E+01
     -7.546  0.3261E+01  0.3298E+01
     -7.484  0.4601E+01  0.3582E+01
     -7.422  0.4268E+01  0.3846E+01
     -7.360  0.2735E+01  0.4016E+01
     -7.298  0.1647E+01  0.4117E+01
     -7.236  0.1426E+01  0.4206E+01
     -7.175  0.1201E+01  0.4280E+01
     -7.113  0.1082E+01  0.4347E+01
     -7.051  0.2862E+01  0.4524E+01
     -6.989  0.7237E+01  0.4972E+01
     -6.927  0.1140E+02  0.5677E+01
     -6.865  0.1163E+02  0.6396E+01
     -6.803  0.8162E+01  0.6901E+01
     -6.742  0.5130E+01  0.7219E+01
     -6.680  0.5099E+01  0.7534E+01
     -6.618  0.6221E+01  0.7919E+01
     -6.556  0.5767E+01  0.8276E+01
     -6.494  0.4076E+01  0.8528E+01
     -6.432  0.3229E+01  0.8727E+01
     -6.370  0.3565E+01  0.8948E+01
     -6.309  0.3838E+01  0.9185E+01
     -6.247  0.4046E+01  0.9436E+01
     -6.185  0.5612E+01  0.9783E+01
     -6.123  0.8595E+01  0.1031E+02
     -6.061  0.1079E+02  0.1098E+02
     -5.999  0.1022E+02  0.1161E+02
     -5.937  0.7303E+01  0.1207E+02
     -5.876  0.4495E+01  0.1234E+02
     -5.814  0.4257E+01  0.1261E+02
     -5.752  0.6829E+01  0.1303E+02
     -5.690  0.9753E+01  0.1363E+02
     -5.628  0.1052E+02  0.1428E+02
     -5.566  0.9385E+01  0.1486E+02
     -5.504  0.8494E+01  0.1539E+02
     -5.443  0.8902E+01  0.1594E+02
     -5.381  0.9924E+01  0.1655E+02
     -5.319  0.1071E+02  0.1722E+02
     -5.257  0.1129E+02  0.1791E+02
     -5.195  0.1257E+02  0.1869E+02
     -5.133  0.1590E+02  0.1968E+02
     -5.071  0.2152E+02  0.2101E+02
     -5.010  0.2680E+02  0.2266E+02
     -4.948  0.2800E+02  0.2440E+02
     -4.886  0.2554E+02  0.2598E+02
     -4.824  0.2479E+02  0.2751E+02
     -4.762  0.2939E+02  0.2933E+02
     -4.700  0.3656E+02  0.3159E+02
     -4.638  0.4142E+02  0.3415E+02
     -4.577  0.4309E+02  0.3682E+02
     -4.515  0.4480E+02  0.3959E+02
     -4.453  0.5052E+02  0.4271E+02
     -4.391  0.6210E+02  0.4655E+02
     -4.329  0.7684E+02  0.5131E+02
     -4.267  0.8774E+02  0.5673E+02
     -4.205  0.8936E+02  0.6226E+02
     -4.144  0.8315E+02  0.6741E+02
     -4.082  0.7504E+02  0.7205E+02
     -4.020  0.6887E+02  0.7631E+02
     -3.958  0.6455E+02  0.8030E+02
     -3.896  0.6186E+02  0.8413E+02
     -3.834  0.6284E+02  0.8801E+02
     -3.772  0.6880E+02  0.9227E+02
     -3.711  0.7688E+02  0.9703E+02
     -3.649  0.8329E+02  0.1022E+03
     -3.587  0.8909E+02  0.1077E+03
     -3.525  0.9800E+02  0.1138E+03
     -3.463  0.1078E+03  0.1204E+03
     -3.401  0.1103E+03  0.1272E+03
     -3.339  0.1022E+03  0.1336E+03
     -3.278  0.9312E+02  0.1393E+03
     -3.216  0.9759E+02  0.1454E+03
     -3.154  0.1209E+03  0.1528E+03
     -3.092  0.1512E+03  0.1622E+03
     -3.030  0.1667E+03  0.1725E+03
     -2.968  0.1551E+03  0.1821E+03
     -2.906  0.1262E+03  0.1899E+03
     -2.845  0.1038E+03  0.1963E+03
     -2.783  0.1046E+03  0.2028E+03
     -2.721  0.1256E+03  0.2106E+03
     -2.659  0.1512E+03  0.2199E+03
     -2.597  0.1655E+03  0.2302E+03
     -2.535  0.1627E+03  0.2402E+03
     -2.473  0.1508E+03  0.2496E+03
     -2.412  0.1449E+03  0.2585E+03
     -2.350  0.1520E+03  0.2679E+03
     -2.288  0.1633E+03  0.2780E+03
     -2.226  0.1681E+03  0.2884E+03
     -2.164  0.1694E+03  0.2989E+03
     -2.102  0.1794E+03  0.3100E+03
     -2.040  0.2002E+03  0.3224E+03
     -1.979  0.2178E+03  0.3359E+03
     -1.917  0.2162E+03  0.3492E+03
     -1.855  0.1893E+03  0.3609E+03
     -1.793  0.1419E+03  0.3697E+03
     -1.731  0.8777E+02  0.3751E+03
     -1.669  0.4463E+02  0.3779E+03
     -1.607  0.2275E+02  0.3793E+03
     -1.546  0.1813E+02  0.3804E+03
     -1.484  0.1931E+02  0.3816E+03
     -1.422  0.1841E+02  0.3828E+03
     -1.360  0.1463E+02  0.3837E+03
     -1.298  0.1050E+02  0.3843E+03
     -1.236  0.8067E+01  0.3848E+03
     -1.174  0.8258E+01  0.3853E+03
     -1.113  0.1105E+02  0.3860E+03
     -1.051  0.1496E+02  0.3869E+03
     -0.989  0.1755E+02  0.3880E+03
     -0.927  0.1738E+02  0.3891E+03
     -0.865  0.1523E+02  0.3900E+03
     -0.803  0.1309E+02  0.3909E+03
     -0.741  0.1230E+02  0.3916E+03
     -0.680  0.1257E+02  0.3924E+03
     -0.618  0.1249E+02  0.3932E+03
     -0.556  0.1141E+02  0.3939E+03
     -0.494  0.1034E+02  0.3945E+03
     -0.432  0.1030E+02  0.3951E+03
     -0.370  0.1056E+02  0.3958E+03
     -0.308  0.9731E+01  0.3964E+03
     -0.247  0.8422E+01  0.3969E+03
     -0.185  0.9130E+01  0.3975E+03
     -0.123  0.1287E+02  0.3983E+03
     -0.061  0.1714E+02  0.3993E+03
      0.001  0.1840E+02  0.4005E+03
      0.063  0.1606E+02  0.4015E+03
      0.125  0.1249E+02  0.4022E+03
      0.186  0.9969E+01  0.4029E+03
      0.248  0.9029E+01  0.4034E+03
      0.310  0.9119E+01  0.4040E+03
      0.372  0.9599E+01  0.4046E+03
      0.434  0.1009E+02  0.4052E+03
      0.496  0.1057E+02  0.4059E+03
      0.558  0.1125E+02  0.4066E+03
      0.619  0.1223E+02  0.4073E+03
      0.681  0.1341E+02  0.4081E+03
      0.743  0.1466E+02  0.4090E+03
      0.805  0.1570E+02  0.4100E+03
      0.867  0.1583E+02  0.4110E+03
      0.929  0.1425E+02  0.4119E+03
      0.991  0.1105E+02  0.4126E+03
      1.052  0.7302E+01  0.4130E+03
      1.114  0.4431E+01  0.4133E+03
      1.176  0.3892E+01  0.4135E+03
      1.238  0.6310E+01  0.4139E+03
      1.300  0.1022E+02  0.4146E+03
      1.362  0.1254E+02  0.4153E+03
      1.424  0.1141E+02  0.4160E+03
      1.485  0.8376E+01  0.4166E+03
      1.547  0.7450E+01  0.4170E+03
      1.609  0.1106E+02  0.4177E+03
      1.671  0.1702E+02  0.4187E+03
      1.733  0.2051E+02  0.4200E+03
      1.795  0.1914E+02  0.4212E+03
      1.857  0.1446E+02  0.4221E+03
      1.918  0.9042E+01  0.4227E+03
      1.980  0.4269E+01  0.4229E+03
      2.042  0.1109E+01  0.4230E+03
      2.104  0.8230E+00  0.4230E+03
      2.166  0.4099E+01  0.4233E+03
      2.228  0.1028E+02  0.4239E+03
      2.290  0.1718E+02  0.4250E+03
      2.351  0.2126E+02  0.4263E+03
      2.413  0.1946E+02  0.4275E+03
      2.475  0.1224E+02  0.4283E+03
      2.537  0.4166E+01  0.4285E+03
      2.599  0.4230E+00  0.4286E+03
      2.661  0.2922E+01  0.4287E+03
      2.723  0.9701E+01  0.4293E+03
      2.784  0.1688E+02  0.4304E+03
      2.846  0.2067E+02  0.4317E+03
      2.908  0.1898E+02  0.4328E+03
      2.970  0.1320E+02  0.4336E+03
      3.032  0.8065E+01  0.4341E+03
      3.094  0.7795E+01  0.4346E+03
      3.156  0.1202E+02  0.4354E+03
      3.217  0.1662E+02  0.4364E+03
      3.279  0.1840E+02  0.4375E+03
      3.341  0.1753E+02  0.4386E+03
      3.403  0.1587E+02  0.4396E+03
      3.465  0.1466E+02  0.4405E+03
      3.527  0.1431E+02  0.4414E+03
      3.589  0.1521E+02  0.4423E+03
      3.650  0.1792E+02  0.4434E+03
      3.712  0.2229E+02  0.4448E+03
      3.774  0.2624E+02  0.4464E+03
      3.836  0.2623E+02  0.4481E+03
      3.898  0.2096E+02  0.4494E+03
      3.960  0.1406E+02  0.4502E+03
      4.022  0.1070E+02  0.4509E+03
      4.083  0.1179E+02  0.4516E+03
      4.145  0.1373E+02  0.4525E+03
      4.207  0.1317E+02  0.4533E+03
      4.269  0.1032E+02  0.4539E+03
      4.331  0.7906E+01  0.4544E+03
      4.393  0.8143E+01  0.4549E+03
      4.455  0.1107E+02  0.4556E+03
      4.516  0.1504E+02  0.4565E+03
      4.578  0.1842E+02  0.4577E+03
      4.640  0.2037E+02  0.4589E+03
      4.702  0.2026E+02  0.4602E+03
      4.764  0.1781E+02  0.4613E+03
      4.826  0.1425E+02  0.4622E+03
      4.888  0.1228E+02  0.4629E+03
      4.949  0.1402E+02  0.4638E+03
      5.011  0.1918E+02  0.4650E+03
      5.073  0.2518E+02  0.4665E+03
      5.135  0.2858E+02  0.4683E+03
      5.197  0.2742E+02  0.4700E+03
      5.259  0.2298E+02  0.4714E+03
      5.321  0.1873E+02  0.4726E+03
      5.382  0.1697E+02  0.4736E+03
      5.444  0.1730E+02  0.4747E+03
      5.506  0.1805E+02  0.4758E+03
      5.568  0.1780E+02  0.4769E+03
      5.630  0.1587E+02  0.4779E+03
      5.692  0.1269E+02  0.4787E+03
      5.754  0.9464E+01  0.4793E+03
      5.815  0.6701E+01  0.4797E+03
      5.877  0.4070E+01  0.4799E+03
      5.939  0.1610E+01  0.4800E+03
      6.001 -0.4108E-02  0.4800E+03
      6.063 -0.4812E+00  0.4800E+03
      6.125 -0.2977E+00  0.4800E+03
      6.187 -0.4810E-01  0.4800E+03
      6.248  0.4789E-01  0.4800E+03
      6.310  0.4320E-01  0.4800E+03
      6.372  0.1967E-01  0.4800E+03
      6.434  0.6128E-02  0.4800E+03
      6.496  0.1419E-02  0.4800E+03
      6.558  0.2535E-03  0.4800E+03
      6.620  0.3559E-04  0.4800E+03
      6.681  0.3977E-05  0.4800E+03
      6.743  0.3566E-06  0.4800E+03
      6.805  0.2580E-07  0.4800E+03
      6.867  0.1513E-08  0.4800E+03
      6.929  0.7207E-10  0.4800E+03
      6.991  0.2798E-11  0.4800E+03
      7.053  0.8884E-13  0.4800E+03
      7.114  0.2244E-14  0.4800E+03
      7.176  0.0000E+00  0.4800E+03
      7.238  0.0000E+00  0.4800E+03
      7.300  0.0000E+00  0.4800E+03
      7.362  0.0000E+00  0.4800E+03
      7.424  0.0000E+00  0.4800E+03
      7.486  0.0000E+00  0.4800E+03
      7.547  0.0000E+00  0.4800E+03
      7.609  0.0000E+00  0.4800E+03
      7.671  0.0000E+00  0.4800E+03
      7.733  0.0000E+00  0.4800E+03
      7.795  0.0000E+00  0.4800E+03
