   36   36    1    1
  0.3666455E+02  0.7700375E-09  0.7700375E-09  0.2226000E-08  0.5000000E-15
  1.000000000000000E-004
  CAR 
 unknown system                          
    396      8    240
 
  0.1250000E+00  0.1250000E+00  0.0000000E+00  0.1250000E+00
    1       -8.762255   1.000000
    2       -7.215888   1.000000
    3       -6.937866   1.000000
    4       -6.931682   1.000000
    5       -5.953746   1.000000
    6       -5.947613   1.000000
    7       -5.701109   1.000000
    8       -5.694276   1.000000
    9       -5.500465   1.000000
   10       -5.321630   1.000000
   11       -5.188197   1.000000
   12       -5.181568   1.000000
   13       -4.969375   1.000000
   14       -4.967162   1.000000
   15       -4.868944   1.000000
   16       -4.787376   1.000000
   17       -4.569407   1.000000
   18       -4.543280   1.000000
   19       -4.533489   1.000000
   20       -4.513204   1.000000
   21       -4.505934   1.000000
   22       -4.459683   1.000000
   23       -4.389606   1.000000
   24       -4.330567   1.000000
   25       -4.329143   1.000000
   26       -4.267721   1.000000
   27       -4.254227   1.000000
   28       -4.250124   1.000000
   29       -4.215396   1.000000
   30       -4.210274   1.000000
   31       -4.204142   1.000000
   32       -4.193612   1.000000
   33       -4.186514   1.000000
   34       -4.118960   1.000000
   35       -4.113324   1.000000
   36       -4.110237   1.000000
   37       -4.104230   1.000000
   38       -4.095021   1.000000
   39       -4.014953   1.000000
   40       -4.011083   1.000000
   41       -3.963109   1.000000
   42       -3.946982   1.000000
   43       -3.922436   1.000000
   44       -3.915913   1.000000
   45       -3.828886   1.000000
   46       -3.718209   1.000000
   47       -3.714837   1.000000
   48       -3.704300   1.000000
   49       -3.698449   1.000000
   50       -3.665810   1.000000
   51       -3.638703   1.000000
   52       -3.617740   1.000000
   53       -3.611205   1.000000
   54       -3.609093   1.000000
   55       -3.566882   1.000000
   56       -3.500299   1.000000
   57       -3.498728   1.000000
   58       -3.479184   1.000000
   59       -3.438866   1.000000
   60       -3.435184   1.000000
   61       -3.431153   1.000000
   62       -3.408095   1.000000
   63       -3.386849   1.000000
   64       -3.381120   1.000000
   65       -3.377887   1.000000
   66       -3.362636   1.000000
   67       -3.355056   1.000000
   68       -3.350062   1.000000
   69       -3.298966   1.000000
   70       -3.296138   1.000000
   71       -3.290918   1.000000
   72       -3.194267   1.000000
   73       -3.184851   1.000000
   74       -3.174105   1.000000
   75       -3.165480   1.000000
   76       -3.138549   1.000000
   77       -3.125182   1.000000
   78       -3.119950   1.000000
   79       -3.085292   1.000000
   80       -3.080274   1.000000
   81       -3.071171   1.000000
   82       -3.063172   1.000000
   83       -3.057916   1.000000
   84       -3.052846   1.000000
   85       -3.035893   1.000000
   86       -3.032735   1.000000
   87       -3.027633   1.000000
   88       -3.022696   1.000000
   89       -3.019333   1.000000
   90       -3.009056   1.000000
   91       -3.000244   1.000000
   92       -2.991124   1.000000
   93       -2.982364   1.000000
   94       -2.969102   1.000000
   95       -2.952991   1.000000
   96       -2.949068   1.000000
   97       -2.903468   1.000000
   98       -2.899505   1.000000
   99       -2.853604   1.000000
  100       -2.800999   1.000000
  101       -2.798850   1.000000
  102       -2.767885   1.000000
  103       -2.761994   1.000000
  104       -2.656766   1.000000
  105       -2.646154   1.000000
  106       -2.639919   1.000000
  107       -2.636986   1.000000
  108       -2.607454   1.000000
  109       -2.601091   1.000000
  110       -2.589543   1.000000
  111       -2.584281   1.000000
  112       -2.569843   1.000000
  113       -2.543441   1.000000
  114       -2.542125   1.000000
  115       -2.538035   1.000000
  116       -2.533513   1.000000
  117       -2.511187   1.000000
  118       -2.506263   1.000000
  119       -2.502693   1.000000
  120       -2.499131   1.000000
  121       -2.485369   1.000000
  122       -2.480858   1.000000
  123       -2.459309   1.000000
  124       -2.439028   1.000000
  125       -2.433220   1.000000
  126       -2.430346   1.000000
  127       -2.426328   1.000000
  128       -2.412412   1.000000
  129       -2.411161   1.000000
  130       -2.405822   1.000000
  131       -2.403510   1.000000
  132       -2.399338   1.000000
  133       -2.395225   1.000000
  134       -2.393473   1.000000
  135       -2.379535   1.000000
  136       -2.376611   1.000000
  137       -2.331960   1.000000
  138       -2.315035   1.000000
  139       -2.281926   1.000000
  140       -2.256871   1.000000
  141       -2.248263   1.000000
  142       -2.242706   1.000000
  143       -2.225744   1.000000
  144       -2.214375   1.000000
  145       -2.210966   1.000000
  146       -2.210050   1.000000
  147       -2.204988   1.000000
  148       -2.202910   1.000000
  149       -2.200579   1.000000
  150       -2.192409   1.000000
  151       -2.164599   1.000000
  152       -2.162792   1.000000
  153       -2.115047   1.000000
  154       -2.083527   1.000000
  155       -2.081514   1.000000
  156       -2.072699   1.000000
  157       -2.070983   1.000000
  158       -2.061341   1.000000
  159       -2.057593   1.000000
  160       -2.047245   1.000000
  161       -2.040824   1.000000
  162       -2.038837   1.000000
  163       -2.037144   1.000000
  164       -2.035690   1.000000
  165       -2.034397   1.000000
  166       -2.025727   1.000000
  167       -2.023124   1.000000
  168       -2.020730   1.000000
  169       -1.996936   1.000000
  170       -1.995341   1.000000
  171       -1.959089   1.000000
  172       -1.956406   1.000000
  173       -1.954842   1.000000
  174       -1.950157   1.000000
  175       -1.947217   1.000000
  176       -1.909769   1.000000
  177       -1.874667   1.000000
  178       -1.873337   1.000000
  179       -1.871587   1.000000
  180       -1.868324   1.000000
  181       -1.862523   1.000000
  182       -1.857526   1.000000
  183       -1.855897   1.000000
  184       -1.841492   1.000000
  185       -1.821341   1.000000
  186       -1.812753   1.000000
  187       -1.811226   1.000000
  188       -1.809773   1.000000
  189       -1.801606   1.000000
  190       -1.798116   1.000000
  191       -1.793089   1.000000
  192       -1.748763   1.000000
  193       -1.328440   1.000000
  194       -1.325111   1.000000
  195       -1.069537   0.999988
  196       -1.068065   0.999988
  197       -0.990103   0.999887
  198       -0.714649   0.996717
  199       -0.603979   1.031406
  200       -0.376479   0.635355
  201       -0.372418   0.614587
  202       -0.103500  -0.034461
  203       -0.097650  -0.031659
  204        0.757504   0.000000
  205        0.835496   0.000000
  206        0.943814   0.000000
  207        1.324105   0.000000
  208        1.330410   0.000000
  209        1.767276   0.000000
  210        1.769020   0.000000
  211        1.867472   0.000000
  212        1.879290   0.000000
  213        2.881757   0.000000
  214        3.083300   0.000000
  215        3.144878   0.000000
  216        3.149281   0.000000
  217        3.282328   0.000000
  218        3.471081   0.000000
  219        3.476401   0.000000
  220        3.627233   0.000000
  221        3.669176   0.000000
  222        3.674595   0.000000
  223        3.801607   0.000000
  224        3.804169   0.000000
  225        4.108686   0.000000
  226        4.519620   0.000000
  227        4.521131   0.000000
  228        4.738113   0.000000
  229        4.752016   0.000000
  230        4.752438   0.000000
  231        4.904850   0.000000
  232        4.906582   0.000000
  233        5.147950   0.000000
  234        5.152697   0.000000
  235        5.319805   0.000000
  236        5.322569   0.000000
  237        5.473740   0.000000
  238        5.490750   0.000000
  239        5.567602   0.000000
  240        5.759770   0.000000
 
  0.3750000E+00  0.1250000E+00  0.0000000E+00  0.1250000E+00
    1       -8.437732   1.000000
    2       -7.809601   1.000000
    3       -6.916142   1.000000
    4       -6.649397   1.000000
    5       -6.364211   1.000000
    6       -6.128618   1.000000
    7       -5.711031   1.000000
    8       -5.443987   1.000000
    9       -5.319791   1.000000
   10       -5.176904   1.000000
   11       -5.082192   1.000000
   12       -5.011453   1.000000
   13       -4.984646   1.000000
   14       -4.974232   1.000000
   15       -4.731414   1.000000
   16       -4.704162   1.000000
   17       -4.698104   1.000000
   18       -4.641348   1.000000
   19       -4.633806   1.000000
   20       -4.594873   1.000000
   21       -4.481340   1.000000
   22       -4.437471   1.000000
   23       -4.423517   1.000000
   24       -4.392747   1.000000
   25       -4.350810   1.000000
   26       -4.327168   1.000000
   27       -4.307960   1.000000
   28       -4.295656   1.000000
   29       -4.289468   1.000000
   30       -4.261379   1.000000
   31       -4.237043   1.000000
   32       -4.226957   1.000000
   33       -4.145909   1.000000
   34       -4.136313   1.000000
   35       -4.058870   1.000000
   36       -4.047399   1.000000
   37       -4.023492   1.000000
   38       -4.019369   1.000000
   39       -3.959296   1.000000
   40       -3.952575   1.000000
   41       -3.933455   1.000000
   42       -3.908843   1.000000
   43       -3.890914   1.000000
   44       -3.834328   1.000000
   45       -3.830281   1.000000
   46       -3.820394   1.000000
   47       -3.768894   1.000000
   48       -3.729121   1.000000
   49       -3.723325   1.000000
   50       -3.699444   1.000000
   51       -3.696554   1.000000
   52       -3.635777   1.000000
   53       -3.600530   1.000000
   54       -3.579133   1.000000
   55       -3.565159   1.000000
   56       -3.551874   1.000000
   57       -3.535995   1.000000
   58       -3.523053   1.000000
   59       -3.487172   1.000000
   60       -3.477418   1.000000
   61       -3.457730   1.000000
   62       -3.453366   1.000000
   63       -3.439470   1.000000
   64       -3.438670   1.000000
   65       -3.416427   1.000000
   66       -3.409888   1.000000
   67       -3.390703   1.000000
   68       -3.324986   1.000000
   69       -3.284538   1.000000
   70       -3.258004   1.000000
   71       -3.240787   1.000000
   72       -3.238489   1.000000
   73       -3.223273   1.000000
   74       -3.206439   1.000000
   75       -3.162110   1.000000
   76       -3.138045   1.000000
   77       -3.115659   1.000000
   78       -3.112474   1.000000
   79       -3.103250   1.000000
   80       -3.097860   1.000000
   81       -3.091105   1.000000
   82       -3.085809   1.000000
   83       -3.079609   1.000000
   84       -3.068253   1.000000
   85       -3.059754   1.000000
   86       -3.042052   1.000000
   87       -3.032633   1.000000
   88       -3.027133   1.000000
   89       -3.004912   1.000000
   90       -2.997582   1.000000
   91       -2.991015   1.000000
   92       -2.978977   1.000000
   93       -2.963553   1.000000
   94       -2.930237   1.000000
   95       -2.921637   1.000000
   96       -2.892902   1.000000
   97       -2.872098   1.000000
   98       -2.864459   1.000000
   99       -2.808952   1.000000
  100       -2.799967   1.000000
  101       -2.759883   1.000000
  102       -2.755843   1.000000
  103       -2.744649   1.000000
  104       -2.742323   1.000000
  105       -2.734500   1.000000
  106       -2.733081   1.000000
  107       -2.713768   1.000000
  108       -2.708159   1.000000
  109       -2.698374   1.000000
  110       -2.677665   1.000000
  111       -2.662446   1.000000
  112       -2.650433   1.000000
  113       -2.626013   1.000000
  114       -2.621386   1.000000
  115       -2.600273   1.000000
  116       -2.594507   1.000000
  117       -2.591072   1.000000
  118       -2.587467   1.000000
  119       -2.568910   1.000000
  120       -2.556452   1.000000
  121       -2.541502   1.000000
  122       -2.536977   1.000000
  123       -2.511975   1.000000
  124       -2.507859   1.000000
  125       -2.498561   1.000000
  126       -2.441833   1.000000
  127       -2.415659   1.000000
  128       -2.393317   1.000000
  129       -2.385426   1.000000
  130       -2.384701   1.000000
  131       -2.367644   1.000000
  132       -2.361965   1.000000
  133       -2.340984   1.000000
  134       -2.329277   1.000000
  135       -2.324853   1.000000
  136       -2.322238   1.000000
  137       -2.312127   1.000000
  138       -2.306314   1.000000
  139       -2.290537   1.000000
  140       -2.281545   1.000000
  141       -2.273442   1.000000
  142       -2.272637   1.000000
  143       -2.262917   1.000000
  144       -2.259481   1.000000
  145       -2.242257   1.000000
  146       -2.234080   1.000000
  147       -2.216206   1.000000
  148       -2.209104   1.000000
  149       -2.178510   1.000000
  150       -2.173517   1.000000
  151       -2.167893   1.000000
  152       -2.136392   1.000000
  153       -2.118871   1.000000
  154       -2.113896   1.000000
  155       -2.104135   1.000000
  156       -2.100712   1.000000
  157       -2.066757   1.000000
  158       -2.060833   1.000000
  159       -2.041544   1.000000
  160       -2.036385   1.000000
  161       -2.035338   1.000000
  162       -2.027132   1.000000
  163       -2.019213   1.000000
  164       -2.016127   1.000000
  165       -2.011085   1.000000
  166       -1.998593   1.000000
  167       -1.978426   1.000000
  168       -1.977008   1.000000
  169       -1.975617   1.000000
  170       -1.973886   1.000000
  171       -1.963665   1.000000
  172       -1.953893   1.000000
  173       -1.950385   1.000000
  174       -1.944949   1.000000
  175       -1.930479   1.000000
  176       -1.910617   1.000000
  177       -1.891389   1.000000
  178       -1.883557   1.000000
  179       -1.870483   1.000000
  180       -1.866646   1.000000
  181       -1.857782   1.000000
  182       -1.827151   1.000000
  183       -1.817245   1.000000
  184       -1.813829   1.000000
  185       -1.798569   1.000000
  186       -1.775491   1.000000
  187       -1.721988   1.000000
  188       -1.685261   1.000000
  189       -1.658672   1.000000
  190       -1.600430   1.000000
  191       -1.560161   1.000000
  192       -1.493816   1.000000
  193       -1.424160   1.000000
  194       -1.071243   0.999989
  195       -0.981029   0.999858
  196       -0.847409   0.997824
  197       -0.675736   1.003224
  198       -0.250619   0.061436
  199       -0.069428  -0.018486
  200       -0.059537  -0.014352
  201        0.019506   0.003789
  202        0.121149   0.003060
  203        0.263679   0.000213
  204        0.460384   0.000001
  205        0.695126   0.000000
  206        0.894066   0.000000
  207        1.270607   0.000000
  208        1.411042   0.000000
  209        1.685538   0.000000
  210        1.696656   0.000000
  211        2.185251   0.000000
  212        2.279479   0.000000
  213        2.324893   0.000000
  214        2.372196   0.000000
  215        2.383544   0.000000
  216        2.709768   0.000000
  217        2.830055   0.000000
  218        2.911923   0.000000
  219        3.205005   0.000000
  220        3.362672   0.000000
  221        3.367775   0.000000
  222        3.772910   0.000000
  223        3.803965   0.000000
  224        3.844496   0.000000
  225        3.850304   0.000000
  226        4.013629   0.000000
  227        4.094158   0.000000
  228        4.415042   0.000000
  229        4.550757   0.000000
  230        4.643002   0.000000
  231        4.657476   0.000000
  232        4.957407   0.000000
  233        5.028291   0.000000
  234        5.066036   0.000000
  235        5.067596   0.000000
  236        5.179950   0.000000
  237        5.196480   0.000000
  238        5.432859   0.000000
  239        5.579273   0.000000
  240        5.794856   0.000000
 
 -0.3750000E+00  0.1250000E+00  0.0000000E+00  0.1250000E+00
    1       -8.437731   1.000000
    2       -7.809603   1.000000
    3       -6.916128   1.000000
    4       -6.649441   1.000000
    5       -6.364202   1.000000
    6       -6.128592   1.000000
    7       -5.711017   1.000000
    8       -5.443989   1.000000
    9       -5.319824   1.000000
   10       -5.176928   1.000000
   11       -5.082169   1.000000
   12       -5.011371   1.000000
   13       -4.984974   1.000000
   14       -4.973910   1.000000
   15       -4.731396   1.000000
   16       -4.704038   1.000000
   17       -4.698245   1.000000
   18       -4.641170   1.000000
   19       -4.633530   1.000000
   20       -4.595445   1.000000
   21       -4.481332   1.000000
   22       -4.437398   1.000000
   23       -4.423479   1.000000
   24       -4.392737   1.000000
   25       -4.350788   1.000000
   26       -4.327409   1.000000
   27       -4.307901   1.000000
   28       -4.295749   1.000000
   29       -4.289133   1.000000
   30       -4.261667   1.000000
   31       -4.237226   1.000000
   32       -4.226632   1.000000
   33       -4.146382   1.000000
   34       -4.135801   1.000000
   35       -4.058936   1.000000
   36       -4.047576   1.000000
   37       -4.023403   1.000000
   38       -4.019186   1.000000
   39       -3.959734   1.000000
   40       -3.952882   1.000000
   41       -3.933268   1.000000
   42       -3.908181   1.000000
   43       -3.891133   1.000000
   44       -3.834276   1.000000
   45       -3.830155   1.000000
   46       -3.820347   1.000000
   47       -3.769041   1.000000
   48       -3.729352   1.000000
   49       -3.723441   1.000000
   50       -3.699118   1.000000
   51       -3.696416   1.000000
   52       -3.636088   1.000000
   53       -3.601022   1.000000
   54       -3.578931   1.000000
   55       -3.565085   1.000000
   56       -3.551926   1.000000
   57       -3.535761   1.000000
   58       -3.522881   1.000000
   59       -3.487400   1.000000
   60       -3.477524   1.000000
   61       -3.457548   1.000000
   62       -3.452764   1.000000
   63       -3.439906   1.000000
   64       -3.438825   1.000000
   65       -3.416355   1.000000
   66       -3.410049   1.000000
   67       -3.390471   1.000000
   68       -3.324723   1.000000
   69       -3.284459   1.000000
   70       -3.257803   1.000000
   71       -3.240908   1.000000
   72       -3.238534   1.000000
   73       -3.223329   1.000000
   74       -3.206260   1.000000
   75       -3.162456   1.000000
   76       -3.137947   1.000000
   77       -3.116165   1.000000
   78       -3.112218   1.000000
   79       -3.102126   1.000000
   80       -3.098179   1.000000
   81       -3.092044   1.000000
   82       -3.086518   1.000000
   83       -3.080824   1.000000
   84       -3.067002   1.000000
   85       -3.059217   1.000000
   86       -3.041562   1.000000
   87       -3.032236   1.000000
   88       -3.027507   1.000000
   89       -3.005531   1.000000
   90       -2.997118   1.000000
   91       -2.990533   1.000000
   92       -2.979111   1.000000
   93       -2.963869   1.000000
   94       -2.930522   1.000000
   95       -2.921758   1.000000
   96       -2.892779   1.000000
   97       -2.872150   1.000000
   98       -2.864099   1.000000
   99       -2.809067   1.000000
  100       -2.800160   1.000000
  101       -2.760257   1.000000
  102       -2.755935   1.000000
  103       -2.743349   1.000000
  104       -2.742304   1.000000
  105       -2.734493   1.000000
  106       -2.733860   1.000000
  107       -2.714281   1.000000
  108       -2.706649   1.000000
  109       -2.698142   1.000000
  110       -2.678015   1.000000
  111       -2.663228   1.000000
  112       -2.650286   1.000000
  113       -2.626624   1.000000
  114       -2.621565   1.000000
  115       -2.600043   1.000000
  116       -2.594728   1.000000
  117       -2.591463   1.000000
  118       -2.586569   1.000000
  119       -2.569451   1.000000
  120       -2.556381   1.000000
  121       -2.541708   1.000000
  122       -2.536182   1.000000
  123       -2.512297   1.000000
  124       -2.507443   1.000000
  125       -2.498603   1.000000
  126       -2.441935   1.000000
  127       -2.415791   1.000000
  128       -2.393466   1.000000
  129       -2.385376   1.000000
  130       -2.384811   1.000000
  131       -2.366927   1.000000
  132       -2.361365   1.000000
  133       -2.341790   1.000000
  134       -2.328334   1.000000
  135       -2.324146   1.000000
  136       -2.321933   1.000000
  137       -2.312455   1.000000
  138       -2.307126   1.000000
  139       -2.292006   1.000000
  140       -2.281720   1.000000
  141       -2.272939   1.000000
  142       -2.271776   1.000000
  143       -2.263544   1.000000
  144       -2.260068   1.000000
  145       -2.242309   1.000000
  146       -2.233633   1.000000
  147       -2.216128   1.000000
  148       -2.209408   1.000000
  149       -2.178034   1.000000
  150       -2.173101   1.000000
  151       -2.168034   1.000000
  152       -2.136763   1.000000
  153       -2.119334   1.000000
  154       -2.113665   1.000000
  155       -2.103936   1.000000
  156       -2.100617   1.000000
  157       -2.067069   1.000000
  158       -2.060731   1.000000
  159       -2.041464   1.000000
  160       -2.036409   1.000000
  161       -2.035534   1.000000
  162       -2.027183   1.000000
  163       -2.019365   1.000000
  164       -2.015980   1.000000
  165       -2.010801   1.000000
  166       -1.999076   1.000000
  167       -1.978107   1.000000
  168       -1.977140   1.000000
  169       -1.975418   1.000000
  170       -1.973841   1.000000
  171       -1.963698   1.000000
  172       -1.953820   1.000000
  173       -1.950256   1.000000
  174       -1.945277   1.000000
  175       -1.930272   1.000000
  176       -1.910574   1.000000
  177       -1.891488   1.000000
  178       -1.883872   1.000000
  179       -1.870164   1.000000
  180       -1.866637   1.000000
  181       -1.858065   1.000000
  182       -1.827246   1.000000
  183       -1.816984   1.000000
  184       -1.814094   1.000000
  185       -1.798770   1.000000
  186       -1.774457   1.000000
  187       -1.722498   1.000000
  188       -1.685210   1.000000
  189       -1.658584   1.000000
  190       -1.600286   1.000000
  191       -1.560214   1.000000
  192       -1.493792   1.000000
  193       -1.424195   1.000000
  194       -1.071236   0.999989
  195       -0.981003   0.999857
  196       -0.847404   0.997824
  197       -0.675789   1.003210
  198       -0.250586   0.061341
  199       -0.068919  -0.018265
  200       -0.059772  -0.014446
  201        0.019184   0.003765
  202        0.121143   0.003060
  203        0.263663   0.000213
  204        0.460339   0.000001
  205        0.695163   0.000000
  206        0.894070   0.000000
  207        1.270192   0.000000
  208        1.411137   0.000000
  209        1.686013   0.000000
  210        1.696662   0.000000
  211        2.185256   0.000000
  212        2.279720   0.000000
  213        2.325055   0.000000
  214        2.372352   0.000000
  215        2.382984   0.000000
  216        2.711602   0.000000
  217        2.827510   0.000000
  218        2.912032   0.000000
  219        3.205006   0.000000
  220        3.361820   0.000000
  221        3.368773   0.000000
  222        3.773076   0.000000
  223        3.804121   0.000000
  224        3.844360   0.000000
  225        3.850239   0.000000
  226        4.014314   0.000000
  227        4.093944   0.000000
  228        4.415050   0.000000
  229        4.550747   0.000000
  230        4.642617   0.000000
  231        4.657295   0.000000
  232        4.956968   0.000000
  233        5.028174   0.000000
  234        5.065969   0.000000
  235        5.067606   0.000000
  236        5.180259   0.000000
  237        5.196841   0.000000
  238        5.432895   0.000000
  239        5.580127   0.000000
  240        5.784013   0.000000
 
 -0.1250000E+00  0.1250000E+00  0.0000000E+00  0.1250000E+00
    1       -8.762254   1.000000
    2       -7.215884   1.000000
    3       -6.937227   1.000000
    4       -6.932341   1.000000
    5       -5.953231   1.000000
    6       -5.948086   1.000000
    7       -5.702056   1.000000
    8       -5.693386   1.000000
    9       -5.500399   1.000000
   10       -5.321644   1.000000
   11       -5.188834   1.000000
   12       -5.180883   1.000000
   13       -4.969054   1.000000
   14       -4.967532   1.000000
   15       -4.868918   1.000000
   16       -4.787369   1.000000
   17       -4.569435   1.000000
   18       -4.543277   1.000000
   19       -4.533417   1.000000
   20       -4.513126   1.000000
   21       -4.505968   1.000000
   22       -4.459824   1.000000
   23       -4.389630   1.000000
   24       -4.330780   1.000000
   25       -4.329109   1.000000
   26       -4.267656   1.000000
   27       -4.254085   1.000000
   28       -4.250422   1.000000
   29       -4.214775   1.000000
   30       -4.209546   1.000000
   31       -4.204127   1.000000
   32       -4.193780   1.000000
   33       -4.187183   1.000000
   34       -4.119682   1.000000
   35       -4.113488   1.000000
   36       -4.109931   1.000000
   37       -4.103900   1.000000
   38       -4.095114   1.000000
   39       -4.014974   1.000000
   40       -4.011278   1.000000
   41       -3.962785   1.000000
   42       -3.947010   1.000000
   43       -3.922428   1.000000
   44       -3.916008   1.000000
   45       -3.828788   1.000000
   46       -3.717761   1.000000
   47       -3.715260   1.000000
   48       -3.704700   1.000000
   49       -3.697995   1.000000
   50       -3.665672   1.000000
   51       -3.638441   1.000000
   52       -3.618515   1.000000
   53       -3.611269   1.000000
   54       -3.609023   1.000000
   55       -3.566882   1.000000
   56       -3.500504   1.000000
   57       -3.498250   1.000000
   58       -3.479094   1.000000
   59       -3.439277   1.000000
   60       -3.434739   1.000000
   61       -3.431903   1.000000
   62       -3.407562   1.000000
   63       -3.387036   1.000000
   64       -3.381059   1.000000
   65       -3.378212   1.000000
   66       -3.362438   1.000000
   67       -3.354862   1.000000
   68       -3.349795   1.000000
   69       -3.298887   1.000000
   70       -3.296181   1.000000
   71       -3.290849   1.000000
   72       -3.194157   1.000000
   73       -3.184845   1.000000
   74       -3.173020   1.000000
   75       -3.166707   1.000000
   76       -3.138702   1.000000
   77       -3.125576   1.000000
   78       -3.119548   1.000000
   79       -3.085489   1.000000
   80       -3.079082   1.000000
   81       -3.072678   1.000000
   82       -3.061772   1.000000
   83       -3.059019   1.000000
   84       -3.052373   1.000000
   85       -3.036209   1.000000
   86       -3.032320   1.000000
   87       -3.026820   1.000000
   88       -3.022980   1.000000
   89       -3.020286   1.000000
   90       -3.008771   1.000000
   91       -3.000277   1.000000
   92       -2.991654   1.000000
   93       -2.981833   1.000000
   94       -2.968617   1.000000
   95       -2.952965   1.000000
   96       -2.949526   1.000000
   97       -2.903485   1.000000
   98       -2.899892   1.000000
   99       -2.854024   1.000000
  100       -2.801139   1.000000
  101       -2.798513   1.000000
  102       -2.768317   1.000000
  103       -2.761285   1.000000
  104       -2.657140   1.000000
  105       -2.646419   1.000000
  106       -2.638599   1.000000
  107       -2.637548   1.000000
  108       -2.607412   1.000000
  109       -2.600617   1.000000
  110       -2.589432   1.000000
  111       -2.583366   1.000000
  112       -2.570272   1.000000
  113       -2.543550   1.000000
  114       -2.542360   1.000000
  115       -2.538452   1.000000
  116       -2.533666   1.000000
  117       -2.511648   1.000000
  118       -2.505690   1.000000
  119       -2.502309   1.000000
  120       -2.499227   1.000000
  121       -2.486218   1.000000
  122       -2.480571   1.000000
  123       -2.459366   1.000000
  124       -2.440253   1.000000
  125       -2.432953   1.000000
  126       -2.429569   1.000000
  127       -2.426029   1.000000
  128       -2.412371   1.000000
  129       -2.410655   1.000000
  130       -2.406548   1.000000
  131       -2.403144   1.000000
  132       -2.399047   1.000000
  133       -2.394917   1.000000
  134       -2.392873   1.000000
  135       -2.380243   1.000000
  136       -2.377379   1.000000
  137       -2.331845   1.000000
  138       -2.315134   1.000000
  139       -2.282311   1.000000
  140       -2.257260   1.000000
  141       -2.248284   1.000000
  142       -2.242296   1.000000
  143       -2.224602   1.000000
  144       -2.215303   1.000000
  145       -2.211936   1.000000
  146       -2.209615   1.000000
  147       -2.204994   1.000000
  148       -2.202873   1.000000
  149       -2.200805   1.000000
  150       -2.192971   1.000000
  151       -2.164098   1.000000
  152       -2.162509   1.000000
  153       -2.114899   1.000000
  154       -2.083380   1.000000
  155       -2.081675   1.000000
  156       -2.072985   1.000000
  157       -2.070503   1.000000
  158       -2.061433   1.000000
  159       -2.057048   1.000000
  160       -2.047470   1.000000
  161       -2.040422   1.000000
  162       -2.038718   1.000000
  163       -2.036743   1.000000
  164       -2.035839   1.000000
  165       -2.034753   1.000000
  166       -2.025760   1.000000
  167       -2.023153   1.000000
  168       -2.021014   1.000000
  169       -1.997096   1.000000
  170       -1.995220   1.000000
  171       -1.959484   1.000000
  172       -1.956208   1.000000
  173       -1.955537   1.000000
  174       -1.950130   1.000000
  175       -1.946550   1.000000
  176       -1.909705   1.000000
  177       -1.875025   1.000000
  178       -1.873158   1.000000
  179       -1.870927   1.000000
  180       -1.868699   1.000000
  181       -1.862432   1.000000
  182       -1.857549   1.000000
  183       -1.855823   1.000000
  184       -1.841051   1.000000
  185       -1.821368   1.000000
  186       -1.812767   1.000000
  187       -1.811251   1.000000
  188       -1.810023   1.000000
  189       -1.800964   1.000000
  190       -1.797180   1.000000
  191       -1.794425   1.000000
  192       -1.749278   1.000000
  193       -1.328469   1.000000
  194       -1.324931   1.000000
  195       -1.069476   0.999988
  196       -1.068054   0.999988
  197       -0.990168   0.999887
  198       -0.714579   0.996723
  199       -0.604071   1.031362
  200       -0.376690   0.636426
  201       -0.372335   0.614155
  202       -0.103460  -0.034442
  203       -0.097618  -0.031644
  204        0.757440   0.000000
  205        0.835589   0.000000
  206        0.943685   0.000000
  207        1.324221   0.000000
  208        1.330295   0.000000
  209        1.766594   0.000000
  210        1.769380   0.000000
  211        1.866582   0.000000
  212        1.880752   0.000000
  213        2.881750   0.000000
  214        3.082756   0.000000
  215        3.144526   0.000000
  216        3.150122   0.000000
  217        3.282110   0.000000
  218        3.469927   0.000000
  219        3.477555   0.000000
  220        3.627549   0.000000
  221        3.669808   0.000000
  222        3.673676   0.000000
  223        3.801004   0.000000
  224        3.804712   0.000000
  225        4.108646   0.000000
  226        4.519727   0.000000
  227        4.521321   0.000000
  228        4.738106   0.000000
  229        4.751758   0.000000
  230        4.752572   0.000000
  231        4.904908   0.000000
  232        4.906454   0.000000
  233        5.147188   0.000000
  234        5.153491   0.000000
  235        5.318343   0.000000
  236        5.322785   0.000000
  237        5.471069   0.000000
  238        5.490237   0.000000
  239        5.567033   0.000000
  240        5.675932   0.000000
 
  0.1250000E+00  0.3750000E+00  0.0000000E+00  0.1250000E+00
    1       -8.437849   1.000000
    2       -7.809731   1.000000
    3       -6.914979   1.000000
    4       -6.650753   1.000000
    5       -6.362094   1.000000
    6       -6.129911   1.000000
    7       -5.711595   1.000000
    8       -5.444428   1.000000
    9       -5.320265   1.000000
   10       -5.177084   1.000000
   11       -5.082333   1.000000
   12       -5.011735   1.000000
   13       -4.982690   1.000000
   14       -4.975206   1.000000
   15       -4.732360   1.000000
   16       -4.703924   1.000000
   17       -4.697609   1.000000
   18       -4.642433   1.000000
   19       -4.634700   1.000000
   20       -4.593704   1.000000
   21       -4.484111   1.000000
   22       -4.432979   1.000000
   23       -4.423170   1.000000
   24       -4.387231   1.000000
   25       -4.356509   1.000000
   26       -4.319141   1.000000
   27       -4.308761   1.000000
   28       -4.300308   1.000000
   29       -4.287047   1.000000
   30       -4.258103   1.000000
   31       -4.239269   1.000000
   32       -4.233601   1.000000
   33       -4.143605   1.000000
   34       -4.136870   1.000000
   35       -4.060610   1.000000
   36       -4.049696   1.000000
   37       -4.025395   1.000000
   38       -4.016890   1.000000
   39       -3.955733   1.000000
   40       -3.952416   1.000000
   41       -3.935013   1.000000
   42       -3.908153   1.000000
   43       -3.898711   1.000000
   44       -3.833186   1.000000
   45       -3.828876   1.000000
   46       -3.818284   1.000000
   47       -3.764937   1.000000
   48       -3.726227   1.000000
   49       -3.722642   1.000000
   50       -3.704027   1.000000
   51       -3.696502   1.000000
   52       -3.637971   1.000000
   53       -3.594464   1.000000
   54       -3.584056   1.000000
   55       -3.570774   1.000000
   56       -3.547062   1.000000
   57       -3.539417   1.000000
   58       -3.525898   1.000000
   59       -3.479303   1.000000
   60       -3.474634   1.000000
   61       -3.457388   1.000000
   62       -3.452429   1.000000
   63       -3.439762   1.000000
   64       -3.432012   1.000000
   65       -3.421219   1.000000
   66       -3.413773   1.000000
   67       -3.397984   1.000000
   68       -3.323968   1.000000
   69       -3.284704   1.000000
   70       -3.253975   1.000000
   71       -3.245235   1.000000
   72       -3.239898   1.000000
   73       -3.220949   1.000000
   74       -3.209060   1.000000
   75       -3.160932   1.000000
   76       -3.140044   1.000000
   77       -3.114278   1.000000
   78       -3.110405   1.000000
   79       -3.100700   1.000000
   80       -3.096531   1.000000
   81       -3.090385   1.000000
   82       -3.086813   1.000000
   83       -3.077692   1.000000
   84       -3.074132   1.000000
   85       -3.058198   1.000000
   86       -3.045393   1.000000
   87       -3.030789   1.000000
   88       -3.028760   1.000000
   89       -3.004553   1.000000
   90       -2.998028   1.000000
   91       -2.993296   1.000000
   92       -2.971492   1.000000
   93       -2.964641   1.000000
   94       -2.930915   1.000000
   95       -2.923593   1.000000
   96       -2.896146   1.000000
   97       -2.870376   1.000000
   98       -2.867375   1.000000
   99       -2.808093   1.000000
  100       -2.794885   1.000000
  101       -2.760786   1.000000
  102       -2.758016   1.000000
  103       -2.747978   1.000000
  104       -2.740518   1.000000
  105       -2.734288   1.000000
  106       -2.730390   1.000000
  107       -2.713288   1.000000
  108       -2.707668   1.000000
  109       -2.694515   1.000000
  110       -2.678427   1.000000
  111       -2.669043   1.000000
  112       -2.654128   1.000000
  113       -2.622894   1.000000
  114       -2.607329   1.000000
  115       -2.604920   1.000000
  116       -2.598471   1.000000
  117       -2.595262   1.000000
  118       -2.588141   1.000000
  119       -2.563717   1.000000
  120       -2.556273   1.000000
  121       -2.542085   1.000000
  122       -2.523583   1.000000
  123       -2.516219   1.000000
  124       -2.508479   1.000000
  125       -2.500917   1.000000
  126       -2.441035   1.000000
  127       -2.411575   1.000000
  128       -2.395321   1.000000
  129       -2.385194   1.000000
  130       -2.384825   1.000000
  131       -2.369769   1.000000
  132       -2.359385   1.000000
  133       -2.341020   1.000000
  134       -2.330831   1.000000
  135       -2.321507   1.000000
  136       -2.318483   1.000000
  137       -2.312571   1.000000
  138       -2.307750   1.000000
  139       -2.288235   1.000000
  140       -2.281278   1.000000
  141       -2.277717   1.000000
  142       -2.274857   1.000000
  143       -2.260902   1.000000
  144       -2.259330   1.000000
  145       -2.238714   1.000000
  146       -2.235188   1.000000
  147       -2.216697   1.000000
  148       -2.208693   1.000000
  149       -2.180305   1.000000
  150       -2.174689   1.000000
  151       -2.168844   1.000000
  152       -2.135892   1.000000
  153       -2.118386   1.000000
  154       -2.112221   1.000000
  155       -2.103637   1.000000
  156       -2.101375   1.000000
  157       -2.065486   1.000000
  158       -2.060051   1.000000
  159       -2.037978   1.000000
  160       -2.036943   1.000000
  161       -2.035499   1.000000
  162       -2.026736   1.000000
  163       -2.020888   1.000000
  164       -2.016965   1.000000
  165       -2.013155   1.000000
  166       -1.999167   1.000000
  167       -1.980449   1.000000
  168       -1.977744   1.000000
  169       -1.975498   1.000000
  170       -1.974395   1.000000
  171       -1.964893   1.000000
  172       -1.951772   1.000000
  173       -1.949637   1.000000
  174       -1.945331   1.000000
  175       -1.930829   1.000000
  176       -1.911045   1.000000
  177       -1.892246   1.000000
  178       -1.881718   1.000000
  179       -1.871465   1.000000
  180       -1.867572   1.000000
  181       -1.857756   1.000000
  182       -1.826539   1.000000
  183       -1.816643   1.000000
  184       -1.813720   1.000000
  185       -1.798211   1.000000
  186       -1.774234   1.000000
  187       -1.723953   1.000000
  188       -1.685817   1.000000
  189       -1.660316   1.000000
  190       -1.600566   1.000000
  191       -1.560622   1.000000
  192       -1.494446   1.000000
  193       -1.425106   1.000000
  194       -1.072305   0.999989
  195       -0.982437   0.999863
  196       -0.847964   0.997842
  197       -0.676124   1.003127
  198       -0.251516   0.063977
  199       -0.069452  -0.018496
  200       -0.058009  -0.013746
  201        0.018148   0.003683
  202        0.119382   0.003126
  203        0.261232   0.000226
  204        0.462377   0.000001
  205        0.695172   0.000000
  206        0.893227   0.000000
  207        1.270063   0.000000
  208        1.414155   0.000000
  209        1.682245   0.000000
  210        1.699236   0.000000
  211        2.183144   0.000000
  212        2.279232   0.000000
  213        2.337900   0.000000
  214        2.364223   0.000000
  215        2.381062   0.000000
  216        2.712634   0.000000
  217        2.827163   0.000000
  218        2.912095   0.000000
  219        3.204985   0.000000
  220        3.363146   0.000000
  221        3.368716   0.000000
  222        3.771909   0.000000
  223        3.802465   0.000000
  224        3.847223   0.000000
  225        3.850122   0.000000
  226        4.015004   0.000000
  227        4.092996   0.000000
  228        4.414957   0.000000
  229        4.557426   0.000000
  230        4.636985   0.000000
  231        4.659443   0.000000
  232        4.955203   0.000000
  233        5.030698   0.000000
  234        5.065891   0.000000
  235        5.068566   0.000000
  236        5.176428   0.000000
  237        5.200228   0.000000
  238        5.431985   0.000000
  239        5.580351   0.000000
  240        5.781901   0.000000
 
  0.3750000E+00  0.3750000E+00  0.0000000E+00  0.1250000E+00
    1       -8.117798   1.000000
    2       -7.504354   1.000000
    3       -7.497457   1.000000
    4       -6.913600   1.000000
    5       -6.619929   1.000000
    6       -6.084929   1.000000
    7       -6.076298   1.000000
    8       -5.576144   1.000000
    9       -4.989819   1.000000
   10       -4.982823   1.000000
   11       -4.848135   1.000000
   12       -4.806637   1.000000
   13       -4.798220   1.000000
   14       -4.754177   1.000000
   15       -4.726183   1.000000
   16       -4.722744   1.000000
   17       -4.696386   1.000000
   18       -4.546057   1.000000
   19       -4.530338   1.000000
   20       -4.525870   1.000000
   21       -4.508705   1.000000
   22       -4.504096   1.000000
   23       -4.383895   1.000000
   24       -4.380829   1.000000
   25       -4.350935   1.000000
   26       -4.344190   1.000000
   27       -4.314016   1.000000
   28       -4.307676   1.000000
   29       -4.296353   1.000000
   30       -4.293803   1.000000
   31       -4.225356   1.000000
   32       -4.204768   1.000000
   33       -4.200941   1.000000
   34       -4.196105   1.000000
   35       -4.150648   1.000000
   36       -4.146054   1.000000
   37       -4.126112   1.000000
   38       -4.068054   1.000000
   39       -4.067001   1.000000
   40       -4.058653   1.000000
   41       -4.014245   1.000000
   42       -3.890606   1.000000
   43       -3.852257   1.000000
   44       -3.814062   1.000000
   45       -3.810902   1.000000
   46       -3.749425   1.000000
   47       -3.738918   1.000000
   48       -3.724436   1.000000
   49       -3.718462   1.000000
   50       -3.711363   1.000000
   51       -3.696500   1.000000
   52       -3.690994   1.000000
   53       -3.656640   1.000000
   54       -3.647970   1.000000
   55       -3.615940   1.000000
   56       -3.530747   1.000000
   57       -3.521937   1.000000
   58       -3.514465   1.000000
   59       -3.506712   1.000000
   60       -3.469198   1.000000
   61       -3.461940   1.000000
   62       -3.426144   1.000000
   63       -3.424161   1.000000
   64       -3.385209   1.000000
   65       -3.376879   1.000000
   66       -3.358934   1.000000
   67       -3.352924   1.000000
   68       -3.338465   1.000000
   69       -3.329874   1.000000
   70       -3.281179   1.000000
   71       -3.272399   1.000000
   72       -3.251784   1.000000
   73       -3.248448   1.000000
   74       -3.238225   1.000000
   75       -3.228029   1.000000
   76       -3.193401   1.000000
   77       -3.159089   1.000000
   78       -3.152683   1.000000
   79       -3.148461   1.000000
   80       -3.144038   1.000000
   81       -3.141368   1.000000
   82       -3.133171   1.000000
   83       -3.075591   1.000000
   84       -3.065044   1.000000
   85       -3.060991   1.000000
   86       -3.043364   1.000000
   87       -3.022640   1.000000
   88       -3.019957   1.000000
   89       -2.992242   1.000000
   90       -2.987882   1.000000
   91       -2.964252   1.000000
   92       -2.959465   1.000000
   93       -2.955309   1.000000
   94       -2.917866   1.000000
   95       -2.915574   1.000000
   96       -2.864820   1.000000
   97       -2.854447   1.000000
   98       -2.850689   1.000000
   99       -2.832587   1.000000
  100       -2.816401   1.000000
  101       -2.810706   1.000000
  102       -2.776742   1.000000
  103       -2.758338   1.000000
  104       -2.751043   1.000000
  105       -2.748066   1.000000
  106       -2.745155   1.000000
  107       -2.736333   1.000000
  108       -2.734021   1.000000
  109       -2.726003   1.000000
  110       -2.716164   1.000000
  111       -2.665112   1.000000
  112       -2.661082   1.000000
  113       -2.658856   1.000000
  114       -2.652051   1.000000
  115       -2.634689   1.000000
  116       -2.626852   1.000000
  117       -2.610756   1.000000
  118       -2.608729   1.000000
  119       -2.603397   1.000000
  120       -2.600491   1.000000
  121       -2.594474   1.000000
  122       -2.590503   1.000000
  123       -2.582973   1.000000
  124       -2.571386   1.000000
  125       -2.569038   1.000000
  126       -2.568008   1.000000
  127       -2.535970   1.000000
  128       -2.513184   1.000000
  129       -2.509490   1.000000
  130       -2.486994   1.000000
  131       -2.428796   1.000000
  132       -2.424975   1.000000
  133       -2.377322   1.000000
  134       -2.373906   1.000000
  135       -2.327681   1.000000
  136       -2.326110   1.000000
  137       -2.325234   1.000000
  138       -2.293447   1.000000
  139       -2.272021   1.000000
  140       -2.268157   1.000000
  141       -2.265479   1.000000
  142       -2.262964   1.000000
  143       -2.255352   1.000000
  144       -2.251407   1.000000
  145       -2.245776   1.000000
  146       -2.225356   1.000000
  147       -2.224623   1.000000
  148       -2.187139   1.000000
  149       -2.183564   1.000000
  150       -2.166506   1.000000
  151       -2.137561   1.000000
  152       -2.103381   1.000000
  153       -2.098777   1.000000
  154       -2.087055   1.000000
  155       -2.082133   1.000000
  156       -2.080487   1.000000
  157       -2.077836   1.000000
  158       -2.074808   1.000000
  159       -2.055867   1.000000
  160       -2.053756   1.000000
  161       -2.052235   1.000000
  162       -2.051044   1.000000
  163       -2.041465   1.000000
  164       -2.039955   1.000000
  165       -2.036780   1.000000
  166       -2.035697   1.000000
  167       -1.964291   1.000000
  168       -1.956543   1.000000
  169       -1.946334   1.000000
  170       -1.929712   1.000000
  171       -1.928909   1.000000
  172       -1.923305   1.000000
  173       -1.913938   1.000000
  174       -1.901575   1.000000
  175       -1.901237   1.000000
  176       -1.885818   1.000000
  177       -1.885278   1.000000
  178       -1.862566   1.000000
  179       -1.860079   1.000000
  180       -1.857910   1.000000
  181       -1.854221   1.000000
  182       -1.844767   1.000000
  183       -1.843583   1.000000
  184       -1.833108   1.000000
  185       -1.824124   1.000000
  186       -1.777858   1.000000
  187       -1.598713   1.000000
  188       -1.503645   1.000000
  189       -1.475721   1.000000
  190       -1.227505   1.000000
  191       -1.226018   1.000000
  192       -0.893309   0.999001
  193       -0.890924   0.998955
  194       -0.746173   0.995123
  195       -0.562605   1.048567
  196       -0.561766   1.048796
  197       -0.416276   0.820069
  198       -0.411397   0.799774
  199        0.151020   0.002026
  200        0.360486   0.000015
  201        0.365028   0.000013
  202        0.549290   0.000000
  203        0.550884   0.000000
  204        0.641609   0.000000
  205        0.645738   0.000000
  206        0.821207   0.000000
  207        0.831323   0.000000
  208        1.052146   0.000000
  209        1.055563   0.000000
  210        1.473034   0.000000
  211        1.622813   0.000000
  212        1.634108   0.000000
  213        1.693479   0.000000
  214        1.904802   0.000000
  215        2.437094   0.000000
  216        2.752058   0.000000
  217        2.758225   0.000000
  218        2.876291   0.000000
  219        2.884292   0.000000
  220        3.219460   0.000000
  221        3.221665   0.000000
  222        3.520589   0.000000
  223        3.528028   0.000000
  224        3.584821   0.000000
  225        3.665167   0.000000
  226        3.666352   0.000000
  227        4.171879   0.000000
  228        4.173526   0.000000
  229        4.263843   0.000000
  230        4.271371   0.000000
  231        4.463431   0.000000
  232        4.720915   0.000000
  233        4.816916   0.000000
  234        5.163111   0.000000
  235        5.164791   0.000000
  236        5.335491   0.000000
  237        5.337061   0.000000
  238        5.395332   0.000000
  239        5.603784   0.000000
  240        5.609945   0.000000
 
 -0.3750000E+00  0.3750000E+00  0.0000000E+00  0.1250000E+00
    1       -8.117795   1.000000
    2       -7.503639   1.000000
    3       -7.498195   1.000000
    4       -6.913566   1.000000
    5       -6.619936   1.000000
    6       -6.086032   1.000000
    7       -6.075209   1.000000
    8       -5.576124   1.000000
    9       -4.989989   1.000000
   10       -4.982728   1.000000
   11       -4.848111   1.000000
   12       -4.806911   1.000000
   13       -4.797725   1.000000
   14       -4.754090   1.000000
   15       -4.725336   1.000000
   16       -4.722877   1.000000
   17       -4.697362   1.000000
   18       -4.546113   1.000000
   19       -4.530652   1.000000
   20       -4.525346   1.000000
   21       -4.508188   1.000000
   22       -4.504774   1.000000
   23       -4.383574   1.000000
   24       -4.381119   1.000000
   25       -4.350978   1.000000
   26       -4.343881   1.000000
   27       -4.313725   1.000000
   28       -4.307701   1.000000
   29       -4.297040   1.000000
   30       -4.293837   1.000000
   31       -4.225494   1.000000
   32       -4.204897   1.000000
   33       -4.200756   1.000000
   34       -4.196170   1.000000
   35       -4.150689   1.000000
   36       -4.145935   1.000000
   37       -4.125920   1.000000
   38       -4.067977   1.000000
   39       -4.066808   1.000000
   40       -4.058925   1.000000
   41       -4.014235   1.000000
   42       -3.890682   1.000000
   43       -3.852109   1.000000
   44       -3.813807   1.000000
   45       -3.810954   1.000000
   46       -3.750043   1.000000
   47       -3.739341   1.000000
   48       -3.724400   1.000000
   49       -3.718107   1.000000
   50       -3.712295   1.000000
   51       -3.695803   1.000000
   52       -3.691041   1.000000
   53       -3.656313   1.000000
   54       -3.647380   1.000000
   55       -3.615971   1.000000
   56       -3.530834   1.000000
   57       -3.522059   1.000000
   58       -3.513949   1.000000
   59       -3.506877   1.000000
   60       -3.469602   1.000000
   61       -3.462013   1.000000
   62       -3.426342   1.000000
   63       -3.423933   1.000000
   64       -3.386897   1.000000
   65       -3.376044   1.000000
   66       -3.359807   1.000000
   67       -3.350751   1.000000
   68       -3.338417   1.000000
   69       -3.329064   1.000000
   70       -3.282451   1.000000
   71       -3.272555   1.000000
   72       -3.251741   1.000000
   73       -3.247960   1.000000
   74       -3.238160   1.000000
   75       -3.228315   1.000000
   76       -3.193725   1.000000
   77       -3.159268   1.000000
   78       -3.152235   1.000000
   79       -3.148947   1.000000
   80       -3.143663   1.000000
   81       -3.141296   1.000000
   82       -3.132966   1.000000
   83       -3.076964   1.000000
   84       -3.064643   1.000000
   85       -3.060265   1.000000
   86       -3.041973   1.000000
   87       -3.022631   1.000000
   88       -3.020369   1.000000
   89       -2.992358   1.000000
   90       -2.988350   1.000000
   91       -2.964768   1.000000
   92       -2.959033   1.000000
   93       -2.955769   1.000000
   94       -2.918710   1.000000
   95       -2.914793   1.000000
   96       -2.864686   1.000000
   97       -2.854304   1.000000
   98       -2.850744   1.000000
   99       -2.832918   1.000000
  100       -2.816681   1.000000
  101       -2.810812   1.000000
  102       -2.777025   1.000000
  103       -2.758946   1.000000
  104       -2.750674   1.000000
  105       -2.747775   1.000000
  106       -2.745063   1.000000
  107       -2.735695   1.000000
  108       -2.734234   1.000000
  109       -2.726800   1.000000
  110       -2.714680   1.000000
  111       -2.664676   1.000000
  112       -2.661569   1.000000
  113       -2.658704   1.000000
  114       -2.651284   1.000000
  115       -2.635402   1.000000
  116       -2.626850   1.000000
  117       -2.611332   1.000000
  118       -2.607937   1.000000
  119       -2.602019   1.000000
  120       -2.600208   1.000000
  121       -2.594731   1.000000
  122       -2.590864   1.000000
  123       -2.584523   1.000000
  124       -2.571632   1.000000
  125       -2.568897   1.000000
  126       -2.567882   1.000000
  127       -2.536237   1.000000
  128       -2.511552   1.000000
  129       -2.510309   1.000000
  130       -2.487963   1.000000
  131       -2.428993   1.000000
  132       -2.424074   1.000000
  133       -2.377017   1.000000
  134       -2.374157   1.000000
  135       -2.327818   1.000000
  136       -2.326455   1.000000
  137       -2.325485   1.000000
  138       -2.293288   1.000000
  139       -2.271579   1.000000
  140       -2.268869   1.000000
  141       -2.266373   1.000000
  142       -2.262573   1.000000
  143       -2.254895   1.000000
  144       -2.251767   1.000000
  145       -2.245312   1.000000
  146       -2.225373   1.000000
  147       -2.224535   1.000000
  148       -2.186933   1.000000
  149       -2.183581   1.000000
  150       -2.166525   1.000000
  151       -2.137503   1.000000
  152       -2.103464   1.000000
  153       -2.098608   1.000000
  154       -2.087419   1.000000
  155       -2.082300   1.000000
  156       -2.080600   1.000000
  157       -2.077628   1.000000
  158       -2.074631   1.000000
  159       -2.055774   1.000000
  160       -2.053944   1.000000
  161       -2.052029   1.000000
  162       -2.050824   1.000000
  163       -2.041390   1.000000
  164       -2.039735   1.000000
  165       -2.037099   1.000000
  166       -2.035568   1.000000
  167       -1.964152   1.000000
  168       -1.956708   1.000000
  169       -1.946543   1.000000
  170       -1.929950   1.000000
  171       -1.928757   1.000000
  172       -1.923266   1.000000
  173       -1.914152   1.000000
  174       -1.901468   1.000000
  175       -1.901143   1.000000
  176       -1.885900   1.000000
  177       -1.885245   1.000000
  178       -1.862644   1.000000
  179       -1.860688   1.000000
  180       -1.857263   1.000000
  181       -1.853932   1.000000
  182       -1.845043   1.000000
  183       -1.843311   1.000000
  184       -1.833266   1.000000
  185       -1.824119   1.000000
  186       -1.777897   1.000000
  187       -1.598729   1.000000
  188       -1.503653   1.000000
  189       -1.475733   1.000000
  190       -1.227382   1.000000
  191       -1.226001   1.000000
  192       -0.892852   0.998993
  193       -0.891339   0.998963
  194       -0.746299   0.995121
  195       -0.562697   1.048541
  196       -0.561668   1.048823
  197       -0.417175   0.823719
  198       -0.410250   0.794894
  199        0.150963   0.002028
  200        0.360353   0.000015
  201        0.365049   0.000013
  202        0.549216   0.000000
  203        0.550800   0.000000
  204        0.641524   0.000000
  205        0.645609   0.000000
  206        0.821544   0.000000
  207        0.831058   0.000000
  208        1.052603   0.000000
  209        1.055207   0.000000
  210        1.473100   0.000000
  211        1.625051   0.000000
  212        1.633798   0.000000
  213        1.691571   0.000000
  214        1.904806   0.000000
  215        2.437331   0.000000
  216        2.751001   0.000000
  217        2.759316   0.000000
  218        2.875351   0.000000
  219        2.885058   0.000000
  220        3.219762   0.000000
  221        3.221803   0.000000
  222        3.520592   0.000000
  223        3.528069   0.000000
  224        3.583274   0.000000
  225        3.664351   0.000000
  226        3.667862   0.000000
  227        4.171921   0.000000
  228        4.173479   0.000000
  229        4.263474   0.000000
  230        4.271925   0.000000
  231        4.463712   0.000000
  232        4.721022   0.000000
  233        4.816913   0.000000
  234        5.163152   0.000000
  235        5.164717   0.000000
  236        5.335536   0.000000
  237        5.337413   0.000000
  238        5.395665   0.000000
  239        5.603880   0.000000
  240        5.609900   0.000000
 
 -0.1250000E+00  0.3750000E+00  0.0000000E+00  0.1250000E+00
    1       -8.437848   1.000000
    2       -7.809732   1.000000
    3       -6.914972   1.000000
    4       -6.650791   1.000000
    5       -6.362065   1.000000
    6       -6.129916   1.000000
    7       -5.711594   1.000000
    8       -5.444439   1.000000
    9       -5.320228   1.000000
   10       -5.177109   1.000000
   11       -5.082290   1.000000
   12       -5.011634   1.000000
   13       -4.983184   1.000000
   14       -4.974715   1.000000
   15       -4.732377   1.000000
   16       -4.703823   1.000000
   17       -4.697734   1.000000
   18       -4.643225   1.000000
   19       -4.634231   1.000000
   20       -4.593466   1.000000
   21       -4.484066   1.000000
   22       -4.433022   1.000000
   23       -4.423182   1.000000
   24       -4.387380   1.000000
   25       -4.356310   1.000000
   26       -4.319254   1.000000
   27       -4.308864   1.000000
   28       -4.300275   1.000000
   29       -4.286816   1.000000
   30       -4.257963   1.000000
   31       -4.239418   1.000000
   32       -4.233655   1.000000
   33       -4.143105   1.000000
   34       -4.137466   1.000000
   35       -4.060566   1.000000
   36       -4.049458   1.000000
   37       -4.025459   1.000000
   38       -4.017168   1.000000
   39       -3.955627   1.000000
   40       -3.952532   1.000000
   41       -3.935093   1.000000
   42       -3.908371   1.000000
   43       -3.898463   1.000000
   44       -3.833326   1.000000
   45       -3.828923   1.000000
   46       -3.817884   1.000000
   47       -3.764895   1.000000
   48       -3.725976   1.000000
   49       -3.722757   1.000000
   50       -3.704417   1.000000
   51       -3.696495   1.000000
   52       -3.638022   1.000000
   53       -3.594332   1.000000
   54       -3.584596   1.000000
   55       -3.570572   1.000000
   56       -3.546629   1.000000
   57       -3.539351   1.000000
   58       -3.526264   1.000000
   59       -3.479129   1.000000
   60       -3.474638   1.000000
   61       -3.456911   1.000000
   62       -3.452498   1.000000
   63       -3.439778   1.000000
   64       -3.431957   1.000000
   65       -3.421509   1.000000
   66       -3.413770   1.000000
   67       -3.397865   1.000000
   68       -3.323940   1.000000
   69       -3.284621   1.000000
   70       -3.253977   1.000000
   71       -3.245836   1.000000
   72       -3.240176   1.000000
   73       -3.220859   1.000000
   74       -3.208588   1.000000
   75       -3.160626   1.000000
   76       -3.139432   1.000000
   77       -3.114739   1.000000
   78       -3.111000   1.000000
   79       -3.100886   1.000000
   80       -3.097041   1.000000
   81       -3.089927   1.000000
   82       -3.086031   1.000000
   83       -3.077057   1.000000
   84       -3.075308   1.000000
   85       -3.057816   1.000000
   86       -3.045212   1.000000
   87       -3.031293   1.000000
   88       -3.027126   1.000000
   89       -3.005722   1.000000
   90       -2.997912   1.000000
   91       -2.993696   1.000000
   92       -2.971222   1.000000
   93       -2.964720   1.000000
   94       -2.930762   1.000000
   95       -2.923488   1.000000
   96       -2.896697   1.000000
   97       -2.870819   1.000000
   98       -2.867597   1.000000
   99       -2.808795   1.000000
  100       -2.794742   1.000000
  101       -2.761185   1.000000
  102       -2.756766   1.000000
  103       -2.746653   1.000000
  104       -2.740511   1.000000
  105       -2.734365   1.000000
  106       -2.730074   1.000000
  107       -2.712898   1.000000
  108       -2.707641   1.000000
  109       -2.696800   1.000000
  110       -2.678416   1.000000
  111       -2.668510   1.000000
  112       -2.654618   1.000000
  113       -2.623081   1.000000
  114       -2.608159   1.000000
  115       -2.604967   1.000000
  116       -2.597629   1.000000
  117       -2.594976   1.000000
  118       -2.587246   1.000000
  119       -2.562672   1.000000
  120       -2.556320   1.000000
  121       -2.542214   1.000000
  122       -2.524252   1.000000
  123       -2.514818   1.000000
  124       -2.508233   1.000000
  125       -2.502529   1.000000
  126       -2.440984   1.000000
  127       -2.411664   1.000000
  128       -2.395108   1.000000
  129       -2.385509   1.000000
  130       -2.384995   1.000000
  131       -2.369800   1.000000
  132       -2.359214   1.000000
  133       -2.341120   1.000000
  134       -2.331310   1.000000
  135       -2.322031   1.000000
  136       -2.317984   1.000000
  137       -2.312511   1.000000
  138       -2.307892   1.000000
  139       -2.288702   1.000000
  140       -2.281251   1.000000
  141       -2.278081   1.000000
  142       -2.275052   1.000000
  143       -2.260540   1.000000
  144       -2.259416   1.000000
  145       -2.238028   1.000000
  146       -2.235341   1.000000
  147       -2.216682   1.000000
  148       -2.208349   1.000000
  149       -2.180698   1.000000
  150       -2.174341   1.000000
  151       -2.168811   1.000000
  152       -2.135507   1.000000
  153       -2.118985   1.000000
  154       -2.111769   1.000000
  155       -2.103716   1.000000
  156       -2.101444   1.000000
  157       -2.065294   1.000000
  158       -2.059873   1.000000
  159       -2.038374   1.000000
  160       -2.037178   1.000000
  161       -2.035354   1.000000
  162       -2.026553   1.000000
  163       -2.021203   1.000000
  164       -2.017061   1.000000
  165       -2.012664   1.000000
  166       -1.999033   1.000000
  167       -1.981070   1.000000
  168       -1.977735   1.000000
  169       -1.975700   1.000000
  170       -1.974146   1.000000
  171       -1.964095   1.000000
  172       -1.951890   1.000000
  173       -1.949640   1.000000
  174       -1.945425   1.000000
  175       -1.930951   1.000000
  176       -1.911075   1.000000
  177       -1.892350   1.000000
  178       -1.881764   1.000000
  179       -1.871287   1.000000
  180       -1.867701   1.000000
  181       -1.857720   1.000000
  182       -1.826539   1.000000
  183       -1.816563   1.000000
  184       -1.813646   1.000000
  185       -1.798204   1.000000
  186       -1.774486   1.000000
  187       -1.723741   1.000000
  188       -1.685903   1.000000
  189       -1.660501   1.000000
  190       -1.600717   1.000000
  191       -1.560496   1.000000
  192       -1.494495   1.000000
  193       -1.424904   1.000000
  194       -1.072294   0.999989
  195       -0.982368   0.999862
  196       -0.848003   0.997843
  197       -0.675980   1.003163
  198       -0.251529   0.064015
  199       -0.070560  -0.018981
  200       -0.056940  -0.013328
  201        0.018145   0.003683
  202        0.119252   0.003131
  203        0.261215   0.000226
  204        0.462402   0.000001
  205        0.695043   0.000000
  206        0.893322   0.000000
  207        1.270081   0.000000
  208        1.414259   0.000000
  209        1.681770   0.000000
  210        1.699584   0.000000
  211        2.182892   0.000000
  212        2.279117   0.000000
  213        2.337950   0.000000
  214        2.364513   0.000000
  215        2.381356   0.000000
  216        2.712182   0.000000
  217        2.827606   0.000000
  218        2.912138   0.000000
  219        3.204986   0.000000
  220        3.361998   0.000000
  221        3.369595   0.000000
  222        3.771757   0.000000
  223        3.802556   0.000000
  224        3.847297   0.000000
  225        3.850074   0.000000
  226        4.014111   0.000000
  227        4.094032   0.000000
  228        4.414964   0.000000
  229        4.557367   0.000000
  230        4.636805   0.000000
  231        4.659388   0.000000
  232        4.955282   0.000000
  233        5.031231   0.000000
  234        5.065957   0.000000
  235        5.068618   0.000000
  236        5.177272   0.000000
  237        5.198928   0.000000
  238        5.431967   0.000000
  239        5.580494   0.000000
  240        5.787009   0.000000
