 vasp.5.4.4.18Apr17-6-g9f103f2a35 (build Mar 06 2021 22:04:06) complex          
  
 executed on             LinuxIFC date 2024.03.06  14:29:20
 running on   16 total cores
 distrk:  each k-point on   16 cores,    1 groups
 distr:  one band on NCORES_PER_BAND=   1 cores,   16 groups


--------------------------------------------------------------------------------------------------------


 INCAR:
 POTCAR:    PAW_PBE Cu 22Jun2005                  

 ----------------------------------------------------------------------------- 
|                                                                             |
|           W    W    AA    RRRRR   N    N  II  N    N   GGGG   !!!           |
|           W    W   A  A   R    R  NN   N  II  NN   N  G    G  !!!           |
|           W    W  A    A  R    R  N N  N  II  N N  N  G       !!!           |
|           W WW W  AAAAAA  RRRRR   N  N N  II  N  N N  G  GGG   !            |
|           WW  WW  A    A  R   R   N   NN  II  N   NN  G    G                |
|           W    W  A    A  R    R  N    N  II  N    N   GGGG   !!!           |
|                                                                             |
|      For optimal performance we recommend to set                            |
|        NCORE= 4 - approx SQRT( number of cores)                             |
|      NCORE specifies how many cores store one orbital (NPAR=cpu/NCORE).     |
|      This setting can  greatly improve the performance of VASP for DFT.     |
|      The default,   NCORE=1            might be grossly inefficient         |
|      on modern multi-core architectures or massively parallel machines.     |
|      Do your own testing !!!!                                               |
|      Unfortunately you need to use the default for GW and RPA calculations. |
|      (for HF NCORE is supported but not extensively tested yet)             |
|                                                                             |
 ----------------------------------------------------------------------------- 

 POTCAR:    PAW_PBE Cu 22Jun2005                  
   VRHFIN =Cu: d10 p1                                                           
   LEXCH  = PE                                                                  
   EATOM  =  1390.9808 eV,  102.2342 Ry                                         
                                                                                
   TITEL  = PAW_PBE Cu 22Jun2005                                                
   LULTRA =        F    use ultrasoft PP ?                                      
   IUNSCR =        1    unscreen: 0-lin 1-nonlin 2-no                           
   RPACOR =    2.000    partial core radius                                     
   POMASS =   63.546; ZVAL   =   11.000    mass and valenz                      
   RCORE  =    2.300    outmost cutoff radius                                   
   RWIGS  =    2.200; RWIGS  =    1.164    wigner-seitz radius (au A)           
   ENMAX  =  295.446; ENMIN  =  221.585 eV                                      
   ICORE  =        3    local potential                                         
   LCOR   =        T    correct aug charges                                     
   LPAW   =        T    paw PP                                                  
   EAUG   =  586.980                                                            
   DEXC   =    0.000                                                            
   RMAX   =    2.344    core radius for proj-oper                               
   RAUG   =    1.300    factor for augmentation sphere                          
   RDEP   =    2.302    radius for radial grids                                 
   RDEPT  =    1.771    core radius for aug-charge                              
                                                                                
   Atomic configuration                                                         
    9 entries                                                                   
     n  l   j            E        occ.                                          
     1  0  0.50     -8850.2468   2.0000                                         
     2  0  0.50     -1062.3498   2.0000                                         
     2  1  1.50      -916.8226   6.0000                                         
     3  0  0.50      -114.6929   2.0000                                         
     3  1  1.50       -72.1325   6.0000                                         
     3  2  2.50        -5.0394  10.0000                                         
     4  0  0.50        -4.6097   1.0000                                         
     4  1  0.50        -4.0817   0.0000                                         
     4  3  2.50        -1.3606   0.0000                                         
   Description                                                                  
     l       E           TYP  RCUT    TYP  RCUT                                 
     2     -5.0393973     23  2.200                                             
     2     10.8846608     23  2.200                                             
     0     -4.6097109     23  2.200                                             
     0      8.2520465     23  2.200                                             
     1     -2.7211652     23  2.200                                             
     1     21.7055443     23  2.200                                             
     3      2.7211652     23  2.300                                             
  local pseudopotential read in
  partial core-charges read in
  partial kinetic energy density read in
  atomic valenz-charges read in
  non local Contribution for L=           2  read in
    real space projection operators read in
  non local Contribution for L=           2  read in
    real space projection operators read in
  non local Contribution for L=           0  read in
    real space projection operators read in
  non local Contribution for L=           0  read in
    real space projection operators read in
  non local Contribution for L=           1  read in
    real space projection operators read in
  non local Contribution for L=           1  read in
    real space projection operators read in
    PAW grid and wavefunctions read in
 
   number of l-projection  operators is LMAX  =           6
   number of lm-projection operators is LMMAX =          18
 
 Optimization of the real space projectors (new method)

 maximal supplied QI-value         = 16.25
 optimisation between [QCUT,QGAM] = [ 11.86, 23.89] = [ 39.41,159.82] Ry 
 Optimized for a Real-space Cutoff    1.37 Angstroem

   l    n(q)    QCUT    max X(q) W(low)/X(q) W(high)/X(q)  e(spline) 
   2      9    11.864     4.610    0.26E-03    0.41E-03    0.20E-06
   2      9    11.864     8.522    0.43E-03    0.67E-03    0.35E-06
   0     10    11.864    51.609    0.83E-04    0.11E-03    0.13E-06
   0     10    11.864    27.747    0.78E-04    0.11E-03    0.12E-06
   1      9    11.864    20.408    0.13E-03    0.42E-04    0.22E-06
   1      9    11.864    13.425    0.12E-03    0.35E-04    0.19E-06

 ----------------------------------------------------------------------------- 
|                                                                             |
|  ADVICE TO THIS USER RUNNING 'VASP/VAMP'   (HEAR YOUR MASTER'S VOICE ...):  |
|                                                                             |
|      You enforced a specific xc-type in the INCAR file,                     |
|      a different type was found on the POTCAR file                          |
|          I HOPE YOU KNOW, WHAT YOU ARE  DOING                               |
|                                                                             |
 ----------------------------------------------------------------------------- 

  PAW_PBE Cu 22Jun2005                  :
 energy of atom  1       EATOM=-1390.9808
 kinetic energy error for atom=    0.0036 (will be added to EATOM!!)
 
 
 POSCAR: Cu                                      
  positions in direct lattice
  velocities in cartesian coordinates
 exchange correlation table for  LEXCH =        9
   RHO(1)=    0.500       N(1)  =     2000
   RHO(2)=  100.500       N(2)  =     4000

 VTST: version 3.2, (02/03/18)

 CHAIN: initializing optimizer
 
 OPT: Using VASP Dynamics algorithm
 CHAIN: Read ICHAIN            0
 
 POSCAR: Cu                                      
  positions in direct lattice
  velocities in cartesian coordinates
 


--------------------------------------------------------------------------------------------------------


 ion  position               nearest neighbor table
   1  0.167  0.167  0.000-   3 2.57   7 2.57   4 2.57   2 2.57  10 2.57  11 2.57  13 2.57  14 2.57

   2  0.500  0.167  0.000-   8 2.57   5 2.57   1 2.57  11 2.57  14 2.57  12 2.57  15 2.57   3 2.57

   3  0.833  0.167  0.000-   1 2.57   9 2.57  10 2.57  13 2.57   6 2.57  12 2.57  15 2.57   2 2.57

   4  0.167  0.500  0.000-   6 2.57   5 2.57   1 2.57  13 2.57  14 2.57  16 2.57  17 2.57   7 2.57

   5  0.500  0.500  0.000-  14 2.57   4 2.57   2 2.57  15 2.57  17 2.57  18 2.57   6 2.57   8 2.57

   6  0.833  0.500  0.000-   4 2.57  13 2.57  16 2.57   3 2.57  15 2.57  18 2.57   5 2.57   9 2.57

   7  0.167  0.833  0.000-   1 2.57   9 2.57  10 2.57  11 2.57   8 2.57  16 2.57  17 2.57   4 2.57

   8  0.500  0.833  0.000-   2 2.57  11 2.57  12 2.57   7 2.57  17 2.57  18 2.57   5 2.57   9 2.57

   9  0.833  0.833  0.000-  10 2.57   7 2.57   3 2.57  12 2.57  16 2.57  18 2.57   6 2.57   8 2.57

  10  0.000  0.000  0.082-   9 2.57  12 2.57  16 2.57   7 2.57   3 2.57   1 2.57  13 2.57  11 2.57
                            25 2.62  19 2.63  27 2.65  21 2.65
  11  0.333  0.000  0.082-  17 2.57   8 2.57   7 2.57  12 2.57   2 2.57   1 2.57  14 2.57  10 2.57
                            25 2.62  19 2.62  26 2.63  20 2.63
  12  0.667  0.000  0.082-  10 2.57  18 2.57   9 2.57   8 2.57  11 2.57   3 2.57   2 2.57  15 2.57
                            20 2.63  26 2.63  27 2.65  21 2.66
  13  0.000  0.333  0.082-  15 2.57   6 2.57   3 2.57  16 2.57   4 2.57   1 2.57  10 2.57  14 2.57
                            22 2.58  24 2.62  19 2.62  21 2.63
  14  0.333  0.333  0.082-  23 2.55   5 2.57  17 2.57  15 2.57   4 2.57   2 2.57   1 2.57  13 2.57
                            11 2.57  22 2.57  19 2.61  20 2.62
  15  0.667  0.333  0.082-  23 2.56  13 2.57  18 2.57  14 2.57   6 2.57   5 2.57   3 2.57   2 2.57
                            12 2.57  24 2.60  20 2.61  21 2.63
  16  0.000  0.667  0.082-  10 2.57  18 2.57   9 2.57   6 2.57  13 2.57   7 2.57   4 2.57  17 2.57
                            22 2.58  24 2.61  25 2.62  27 2.63
  17  0.333  0.667  0.082-  23 2.55  11 2.57  18 2.57  14 2.57   8 2.57   5 2.57   7 2.57   4 2.57
                            16 2.57  22 2.57  25 2.61  26 2.61
  18  0.667  0.667  0.082-  23 2.56  16 2.57  12 2.57  17 2.57  15 2.57   9 2.57   6 2.57   8 2.57
                             5 2.57  24 2.60  26 2.62  27 2.63
  19  0.167  0.168  0.166-  22 2.56  28 2.56  20 2.56  29 2.57  21 2.57  25 2.58  31 2.60  14 2.61
                            13 2.62  11 2.62  10 2.63  32 2.63
  20  0.500  0.169  0.167-  23 2.55  19 2.56  30 2.57  29 2.57  21 2.57  26 2.60  32 2.61  15 2.61
                            14 2.62  33 2.62  12 2.63  11 2.63
  21  0.834  0.170  0.168-  24 2.54  28 2.56  30 2.56  20 2.57  19 2.57  31 2.58  33 2.61  27 2.61
                            13 2.63  15 2.63  10 2.65  12 2.66
  22  0.168  0.500  0.164-  23 2.54  19 2.56  25 2.56  14 2.57  17 2.57  13 2.58  16 2.58  24 2.59
                            31 2.62  34 2.63  35 2.66  32 2.67
  23  0.498  0.500  0.162-  22 2.54  14 2.55  17 2.55  20 2.55  26 2.55  15 2.56  18 2.56  24 2.57
                            32 2.67  35 2.67  36 2.68  33 2.68
  24  0.832  0.501  0.166-  21 2.54  27 2.55  23 2.57  22 2.59  18 2.60  15 2.60  34 2.61  16 2.61
                            31 2.61  13 2.62  33 2.63  36 2.63
  25  0.167  0.833  0.166-  26 2.56  22 2.56  29 2.57  27 2.57  28 2.57  19 2.58  34 2.59  17 2.61
                            16 2.62  11 2.62  10 2.62  35 2.63
  26  0.500  0.831  0.167-  23 2.55  29 2.56  25 2.56  27 2.57  30 2.58  20 2.60  36 2.61  17 2.61
                            18 2.62  35 2.62  11 2.63  12 2.63
  27  0.833  0.831  0.168-  24 2.55  30 2.56  28 2.56  25 2.57  34 2.57  26 2.57  36 2.60  21 2.61
                            16 2.63  18 2.63  10 2.65  12 2.65
  28  0.001  0.001  0.248-  21 2.56  29 2.56  27 2.56  19 2.56  25 2.57  30 2.58  31 2.58  34 2.58

  29  0.334  0.999  0.248-  26 2.56  30 2.56  28 2.56  25 2.57  20 2.57  19 2.57  32 2.58  35 2.58

  30  0.667  0.001  0.248-  21 2.56  27 2.56  29 2.56  20 2.57  26 2.58  28 2.58  36 2.58  33 2.58

  31  0.002  0.336  0.250-  34 2.54  32 2.56  21 2.58  28 2.58  33 2.60  19 2.60  24 2.61  22 2.62

  32  0.335  0.334  0.252-  33 2.54  35 2.54  31 2.56  29 2.58  20 2.61  19 2.63  22 2.67  23 2.67

  33  0.665  0.336  0.252-  32 2.54  36 2.54  30 2.58  31 2.60  21 2.61  20 2.62  24 2.63  23 2.68

  34  0.000  0.665  0.249-  31 2.54  35 2.57  27 2.57  28 2.58  36 2.59  25 2.59  24 2.61  22 2.63

  35  0.334  0.665  0.252-  32 2.54  36 2.55  34 2.57  29 2.58  26 2.62  25 2.63  22 2.66  23 2.67

  36  0.664  0.666  0.251-  33 2.54  35 2.55  30 2.58  34 2.59  27 2.60  26 2.61  24 2.63  23 2.68

 

IMPORTANT INFORMATION: All symmetrisations will be switched off!
NOSYMM: (Re-)initialisation of all symmetry stuff for point group C_1.

 
 
 KPOINTS: KPOINTS created by Atomic Simulation Env

Automatic generation of k-mesh.
Space group operators:
 irot       det(A)        alpha          n_x          n_y          n_z        tau_x        tau_y        tau_z
    1     1.000000     0.000001     1.000000     0.000000     0.000000     0.000000     0.000000     0.000000
 
 Subroutine IBZKPT returns following result:
 ===========================================
 
 Found      8 irreducible k-points:
 
 Following reciprocal coordinates:
            Coordinates               Weight
  0.125000  0.125000  0.000000      2.000000
  0.375000  0.125000  0.000000      2.000000
 -0.375000  0.125000  0.000000      2.000000
 -0.125000  0.125000  0.000000      2.000000
  0.125000  0.375000  0.000000      2.000000
  0.375000  0.375000  0.000000      2.000000
 -0.375000  0.375000  0.000000      2.000000
 -0.125000  0.375000  0.000000      2.000000
 
 Following cartesian coordinates:
            Coordinates               Weight
  0.016233  0.016233  0.000000      2.000000
  0.048699  0.016233  0.000000      2.000000
 -0.048699  0.016233  0.000000      2.000000
 -0.016233  0.016233  0.000000      2.000000
  0.016233  0.048699  0.000000      2.000000
  0.048699  0.048699  0.000000      2.000000
 -0.048699  0.048699  0.000000      2.000000
 -0.016233  0.048699  0.000000      2.000000
 


--------------------------------------------------------------------------------------------------------




 Dimension of arrays:
   k-points           NKPTS =      8   k-points in BZ     NKDIM =      8   number of bands    NBANDS=    240
   number of dos      NEDOS =    301   number of ions     NIONS =     36
   non local maximal  LDIM  =      6   non local SUM 2l+1 LMDIM =     18
   total plane-waves  NPLWV = 294912
   max r-space proj   IRMAX =   2468   max aug-charges    IRDMAX=   6671
   dimension x,y,z NGX =    48 NGY =   48 NGZ =  128
   dimension x,y,z NGXF=    96 NGYF=   96 NGZF=  256
   support grid    NGXF=    96 NGYF=   96 NGZF=  256
   ions per type =              36
   NGX,Y,Z   is equivalent  to a cutoff of  10.36, 10.36,  9.56 a.u.
   NGXF,Y,Z  is equivalent  to a cutoff of  20.73, 20.73, 19.12 a.u.

 SYSTEM =  unknown system                          
 POSCAR =  Cu                                      

 Startparameter for this run:
   NWRITE =      2    write-flag & timer
   PREC   = normal    normal or accurate (medium, high low for compatibility)
   ISTART =      0    job   : 0-new  1-cont  2-samecut
   ICHARG =      2    charge: 1-file 2-atom 10-const
   ISPIN  =      1    spin polarized calculation?
   LNONCOLLINEAR =      F non collinear calculations
   LSORBIT =      F    spin-orbit coupling
   INIWAV =      1    electr: 0-lowe 1-rand  2-diag
   LASPH  =      F    aspherical Exc in radial PAW
   METAGGA=      F    non-selfconsistent MetaGGA calc.

 Electronic Relaxation 1
   ENCUT  =  544.0 eV  39.98 Ry    6.32 a.u.  14.64 14.64 42.33*2*pi/ulx,y,z
   ENINI  =  544.0     initial cutoff
   ENAUG  =  587.0 eV  augmentation charge cutoff
   NELM   =    400;   NELMIN=  2; NELMDL=-12     # of ELM steps 
   EDIFF  = 0.1E-04   stopping-criterion for ELM
   LREAL  =      T    real-space projection
   NLSPLINE    = F    spline interpolate recip. space projectors
   LCOMPAT=      F    compatible to vasp.4.4
   GGA_COMPAT  = T    GGA compatible to vasp.4.4-vasp.4.6
   LMAXPAW     = -100 max onsite density
   LMAXMIX     =    2 max onsite mixed and CHGCAR
   VOSKOWN=      1    Vosko Wilk Nusair interpolation
   ROPT   =   -0.00050
 Ionic relaxation
   EDIFFG = -.5E-01   stopping-criterion for IOM
   NSW    =      0    number of steps for IOM
   NBLOCK =      1;   KBLOCK =      1    inner block; outer block 
   IBRION =     -1    ionic relax: 0-MD 1-quasi-New 2-CG
   NFREE  =      0    steps in history (QN), initial steepest desc. (CG)
   ISIF   =      2    stress and relaxation
   IWAVPR =     10    prediction:  0-non 1-charg 2-wave 3-comb
   ISYM   =      0    0-nonsym 1-usesym 2-fastsym
   LCORR  =      T    Harris-Foulkes like correction to forces

   POTIM  = 0.5000    time-step for ionic-motion
   TEIN   =    0.0    initial temperature
   TEBEG  =    0.0;   TEEND  =   0.0 temperature during run
   SMASS  =  -3.00    Nose mass-parameter (am)
   estimated Nose-frequenzy (Omega)   =  0.10E-29 period in steps =****** mass=  -0.136E-26a.u.
   SCALEE = 1.0000    scale energy and forces
   NPACO  =    256;   APACO  = 16.0  distance and # of slots for P.C.
   PSTRESS=    0.0 pullay stress

  Mass of Ions in am
   POMASS =  63.55
  Ionic Valenz
   ZVAL   =  11.00
  Atomic Wigner-Seitz radii
   RWIGS  =  -1.00
  virtual crystal weights 
   VCA    =   1.00
   NELECT =     396.0000    total number of electrons
   NUPDOWN=      -1.0000    fix difference up-down

 DOS related values:
   EMIN   =  10.00;   EMAX   =-10.00  energy-range for DOS
   EFERMI =   0.00
   ISMEAR =     2;   SIGMA  =   0.20  broadening in eV -4-tet -1-fermi 0-gaus

 Electronic relaxation 2 (details)
   IALGO  =     48    algorithm
   LDIAG  =      T    sub-space diagonalisation (order eigenvalues)
   LSUBROT=      F    optimize rotation matrix (better conditioning)
   TURBO    =      0    0=normal 1=particle mesh
   IRESTART =      0    0=no restart 2=restart with 2 vectors
   NREBOOT  =      0    no. of reboots
   NMIN     =      0    reboot dimension
   EREF     =   0.00    reference energy to select bands
   IMIX   =      4    mixing-type and parameters
     AMIX     =   0.40;   BMIX     =  1.00
     AMIX_MAG =   1.60;   BMIX_MAG =  1.00
     AMIN     =   0.10
     WC   =   100.;   INIMIX=   1;  MIXPRE=   1;  MAXMIX= -45

 Intra band minimization:
   WEIMIN = 0.0000     energy-eigenvalue tresh-hold
   EBREAK =  0.10E-07  absolut break condition
   DEPER  =   0.30     relativ break condition  

   TIME   =   0.40     timestep for ELM

  volume/ion in A,a.u.               =      36.66       247.42
  Fermi-wavevector in a.u.,A,eV,Ry     =   1.095949  2.071043 16.342009  1.201104
  Thomas-Fermi vector in A             =   2.232282
 
 Write flags
   LWAVE        =      F    write WAVECAR
   LDOWNSAMPLE  =      F    k-point downsampling of WAVECAR
   LCHARG       =      F    write CHGCAR
   LVTOT        =      F    write LOCPOT, total local potential
   LVHAR        =      T    write LOCPOT, Hartree potential only
   LELF         =      F    write electronic localiz. function (ELF)
   LORBIT       =      0    0 simple, 1 ext, 2 COOP (PROOUT), +10 PAW based schemes


 Dipole corrections
   LMONO  =      F    monopole corrections only (constant potential shift)
   LDIPOL =      T    correct potential (dipole corrections)
   IDIPOL =      3    1-x, 2-y, 3-z, 4-all directions 
   EPSILON=  1.0000000 bulk dielectric constant

   EFIELD =  0.3000000 eV/A    external electric field

 Exchange correlation treatment:
   GGA     =    RP    GGA type
   LEXCH   =     9    internal setting for exchange type
   VOSKOWN=      1    Vosko Wilk Nusair interpolation
   LHFCALC =     F    Hartree Fock is set to
   LHFONE  =     F    Hartree Fock one center treatment
   AEXX    =    0.0000 exact exchange contribution

 Linear response parameters
   LEPSILON=     F    determine dielectric tensor
   LRPA    =     F    only Hartree local field effects (RPA)
   LNABLA  =     F    use nabla operator in PAW spheres
   LVEL    =     F    velocity operator in full k-point grid
   LINTERFAST=   F  fast interpolation
   KINTER  =     0    interpolate to denser k-point grid
   CSHIFT  =0.1000    complex shift for real part using Kramers Kronig
   OMEGAMAX=  -1.0    maximum frequency
   DEG_THRESHOLD= 0.2000000E-02 threshold for treating states as degnerate
   RTIME   =   -0.100 relaxation time in fs
  (WPLASMAI=    0.000 imaginary part of plasma frequency in eV, 0.658/RTIME)
   DFIELD  = 0.0000000 0.0000000 0.0000000 field for delta impulse in time
 
 Orbital magnetization related:
   ORBITALMAG=     F  switch on orbital magnetization
   LCHIMAG   =     F  perturbation theory with respect to B field
   DQ        =  0.001000  dq finite difference perturbation B field
   LLRAUG    =     F  two centre corrections for induced B field



--------------------------------------------------------------------------------------------------------


 Static calculation
 charge density and potential will be updated during run
 non-spin polarized calculation
 RMM-DIIS sequential band-by-band
 perform sub-space diagonalisation
    before iterative eigenvector-optimisation
 modified Broyden-mixing scheme, WC =      100.0
 initial mixing is a Kerker type mixing with AMIX =  0.4000 and BMIX =      1.0000
 Hartree-type preconditioning will be used
 using additional bands           42
 real space projection scheme for non local part
 use partial core corrections
 calculate Harris-corrections to forces 
   (improved forces if not selfconsistent)
 use gradient corrections 
 use of overlap-Matrix (Vanderbilt PP)
 Methfessel and Paxton  Order N= 2 SIGMA  =   0.20


--------------------------------------------------------------------------------------------------------


  energy-cutoff  :      544.00
  volume of cell :     1319.92
      direct lattice vectors                 reciprocal lattice vectors
     7.700375000  0.000000000  0.000000000     0.129863805  0.000000000  0.000000000
     0.000000000  7.700375000  0.000000000     0.000000000  0.129863805  0.000000000
     0.000000000  0.000000000 22.259998000     0.000000000  0.000000000  0.044923634

  length of vectors
     7.700375000  7.700375000 22.259998000     0.129863805  0.129863805  0.044923634


 
 k-points in units of 2pi/SCALE and weight: KPOINTS created by Atomic Simulation Env
   0.01623298  0.01623298  0.00000000       0.125
   0.04869893  0.01623298  0.00000000       0.125
  -0.04869893  0.01623298  0.00000000       0.125
  -0.01623298  0.01623298  0.00000000       0.125
   0.01623298  0.04869893  0.00000000       0.125
   0.04869893  0.04869893  0.00000000       0.125
  -0.04869893  0.04869893  0.00000000       0.125
  -0.01623298  0.04869893  0.00000000       0.125
 
 k-points in reciprocal lattice and weights: KPOINTS created by Atomic Simulation Env
   0.12500000  0.12500000  0.00000000       0.125
   0.37500000  0.12500000  0.00000000       0.125
  -0.37500000  0.12500000  0.00000000       0.125
  -0.12500000  0.12500000  0.00000000       0.125
   0.12500000  0.37500000  0.00000000       0.125
   0.37500000  0.37500000  0.00000000       0.125
  -0.37500000  0.37500000  0.00000000       0.125
  -0.12500000  0.37500000  0.00000000       0.125
 
 position of ions in fractional coordinates (direct lattice) 
   0.16666708  0.16666708  0.00000000
   0.50000110  0.16666708  0.00000000
   0.83333526  0.16666708  0.00000000
   0.16666708  0.50000110  0.00000000
   0.50000110  0.50000110  0.00000000
   0.83333526  0.50000110  0.00000000
   0.16666708  0.83333526  0.00000000
   0.50000110  0.83333526  0.00000000
   0.83333526  0.83333526  0.00000000
   0.00000000  0.00000000  0.08153640
   0.33333416  0.00000000  0.08153640
   0.66666818  0.00000000  0.08153640
   0.00000000  0.33333416  0.08153640
   0.33333416  0.33333416  0.08153640
   0.66666818  0.33333416  0.08153640
   0.00000000  0.66666818  0.08153640
   0.33333416  0.66666818  0.08153640
   0.66666818  0.66666818  0.08153640
   0.16749132  0.16755171  0.16633056
   0.50023135  0.16854569  0.16659426
   0.83382822  0.17046235  0.16772441
   0.16775183  0.49998007  0.16359364
   0.49814808  0.49989721  0.16238928
   0.83170417  0.50060588  0.16558160
   0.16698693  0.83269425  0.16625136
   0.49959450  0.83143159  0.16657733
   0.83341318  0.83126432  0.16761520
   0.00132513  0.00111748  0.24773960
   0.33395555  0.99946665  0.24757473
   0.66657143  0.00089502  0.24789836
   0.00244988  0.33616610  0.24967743
   0.33544626  0.33422567  0.25154063
   0.66548343  0.33587572  0.25168187
   0.00045024  0.66549733  0.24947307
   0.33368154  0.66454491  0.25157729
   0.66443608  0.66598536  0.25129167
 
 position of ions in cartesian coordinates  (Angst):
   1.28339900  1.28339900  0.00000000
   3.85019600  1.28339900  0.00000000
   6.41699400  1.28339900  0.00000000
   1.28339900  3.85019600  0.00000000
   3.85019600  3.85019600  0.00000000
   6.41699400  3.85019600  0.00000000
   1.28339900  6.41699400  0.00000000
   3.85019600  6.41699400  0.00000000
   6.41699400  6.41699400  0.00000000
   0.00000000  0.00000000  1.81500000
   2.56679800  0.00000000  1.81500000
   5.13359500  0.00000000  1.81500000
   0.00000000  2.56679800  1.81500000
   2.56679800  2.56679800  1.81500000
   5.13359500  2.56679800  1.81500000
   0.00000000  5.13359500  1.81500000
   2.56679800  5.13359500  1.81500000
   5.13359500  5.13359500  1.81500000
   1.28974600  1.29021100  3.70251800
   3.85196900  1.29786500  3.70838800
   6.42079000  1.31262400  3.73354500
   1.29175200  3.85003400  3.64159400
   3.83592700  3.84939600  3.61478500
   6.40443400  3.85485300  3.68584600
   1.28586200  6.41205800  3.70075500
   3.84706500  6.40233500  3.70801100
   6.41759400  6.40104700  3.73111400
   0.01020400  0.00860500  5.51468300
   2.57158300  7.69626800  5.51101300
   5.13285000  0.00689200  5.51821700
   0.01886500  2.58860500  5.55781900
   2.58306200  2.57366300  5.59929400
   5.12447200  2.58636900  5.60243800
   0.00346700  5.12457900  5.55327000
   2.56947300  5.11724500  5.60011000
   5.11640700  5.12833700  5.59375200
 


--------------------------------------------------------------------------------------------------------


 k-point  1 :   0.1250 0.1250 0.0000  plane waves:   38041
 k-point  2 :   0.3750 0.1250 0.0000  plane waves:   38040
 k-point  3 :  -0.3750 0.1250 0.0000  plane waves:   38040
 k-point  4 :  -0.1250 0.1250 0.0000  plane waves:   38041
 k-point  5 :   0.1250 0.3750 0.0000  plane waves:   38040
 k-point  6 :   0.3750 0.3750 0.0000  plane waves:   37996
 k-point  7 :  -0.3750 0.3750 0.0000  plane waves:   37996
 k-point  8 :  -0.1250 0.3750 0.0000  plane waves:   38040

 maximum and minimum number of plane-waves per node :     38041    37996

 maximum number of plane-waves:     38041
 maximum index in each direction: 
   IXMAX=   15   IYMAX=   14   IZMAX=   42
   IXMIN=  -15   IYMIN=  -15   IZMIN=  -42


 serial   3D FFT for wavefunctions
 parallel 3D FFT for charge:
    minimum data exchange during FFTs selected (reduces bandwidth)


 total amount of memory used by VASP MPI-rank0   144874. kBytes
=======================================================================

   base      :      30000. kBytes
   nonlr-proj:      14881. kBytes
   fftplans  :       6175. kBytes
   grid      :      18948. kBytes
   one-center:        559. kBytes
   wavefun   :      74311. kBytes
 
     INWAV:  cpu time    0.0002: real time    0.0005
 Broyden mixing: mesh for mixing (old mesh)
   NGX = 29   NGY = 29   NGZ = 85
  (NGX  = 96   NGY  = 96   NGZ  =256)
  gives a total of  71485 points

 initial charge density was supplied:
 charge density of overlapping atoms calculated
 number of electron     396.0000000 magnetization 
 keeping initial charge density in first step


--------------------------------------------------------------------------------------------------------


 Maximum index for non-local projection operator         2371
 Maximum index for augmentation-charges          404 (set IRDMAX)


--------------------------------------------------------------------------------------------------------


 First call to EWALD:  gamma=   0.162
 Maximum number of real-space cells 4x 4x 2
 Maximum number of reciprocal cells 2x 2x 5

    FEWALD:  cpu time    0.0018: real time    0.0018


--------------------------------------- Iteration      1(   1)  ---------------------------------------


    POTLOK:  cpu time    0.0955: real time    0.1013
    SETDIJ:  cpu time    0.0063: real time    0.0063
    EDDIAG:  cpu time    2.6901: real time    2.7283
  RMM-DIIS:  cpu time    3.7863: real time    3.8137
    ORTHCH:  cpu time    0.6642: real time    0.6684
       DOS:  cpu time    0.0015: real time    0.0016
    --------------------------------------------
      LOOP:  cpu time    7.2440: real time    7.3197

 eigenvalue-minimisations  :  1920
 total energy-change (2. order) : 0.3158175E+04  (-0.1583777E+05)
 number of electron     396.0000000 magnetization 
 augmentation part      396.0000000 magnetization 

 DIPCOR: dipole corrections for dipol
 direction  3 min pos   164,
 dipolmoment           0.000000      0.000000      0.000069 electrons x Angstroem
 Tr[quadrupol]     -4128.493775

 energy correction for charged system         0.000000 eV
 dipol+quadrupol energy correction           -0.000000 eV
 added-field ion interaction        -32.829919 eV  (added to PSCEN)


 Free energy of the ion-electron system (eV)
  ---------------------------------------------------
  alpha Z        PSCENC =       685.24267776
  Ewald energy   TEWEN  =    164226.44806453
  -Hartree energ DENC   =   -212025.95640762
  -exchange      EXHF   =         0.00000000
  -V(xc)+E(xc)   XCENC  =      1613.73814842
  PAW double counting   =     44243.50493509   -48017.47383163
  entropy T*S    EENTRO =        -0.01963706
  eigenvalues    EBANDS =      2394.76744802
  atomic energy  EATOM  =     50037.92390023
  Solvation  Ediel_sol  =         0.00000000
  ---------------------------------------------------
  free energy    TOTEN  =      3158.17529774 eV

  energy without entropy =     3158.19493480  energy(sigma->0) =     3158.18020700


--------------------------------------------------------------------------------------------------------




--------------------------------------- Iteration      1(   2)  ---------------------------------------


    EDDIAG:  cpu time    2.6078: real time    2.6280
  RMM-DIIS:  cpu time    3.6901: real time    3.7167
    ORTHCH:  cpu time    0.6608: real time    0.6652
       DOS:  cpu time    0.0011: real time    0.0011
    --------------------------------------------
      LOOP:  cpu time    6.9597: real time    7.0110

 eigenvalue-minimisations  :  1920
 total energy-change (2. order) :-0.2445591E+04  (-0.2761323E+04)
 number of electron     396.0000000 magnetization 
 augmentation part      396.0000000 magnetization 

 DIPCOR: dipole corrections for dipol
 direction  3 min pos   164,
 dipolmoment           0.000000      0.000000      0.000069 electrons x Angstroem
 Tr[quadrupol]     -4128.493775

 energy correction for charged system         0.000000 eV
 dipol+quadrupol energy correction           -0.000000 eV
 added-field ion interaction        -32.829919 eV  (added to PSCEN)


 Free energy of the ion-electron system (eV)
  ---------------------------------------------------
  alpha Z        PSCENC =       685.24267776
  Ewald energy   TEWEN  =    164226.44806453
  -Hartree energ DENC   =   -212025.95640762
  -exchange      EXHF   =         0.00000000
  -V(xc)+E(xc)   XCENC  =      1613.73814842
  PAW double counting   =     44243.50493509   -48017.47383163
  entropy T*S    EENTRO =        -0.02552034
  eigenvalues    EBANDS =       -50.81777239
  atomic energy  EATOM  =     50037.92390023
  Solvation  Ediel_sol  =         0.00000000
  ---------------------------------------------------
  free energy    TOTEN  =       712.58419405 eV

  energy without entropy =      712.60971439  energy(sigma->0) =      712.59057413


--------------------------------------------------------------------------------------------------------




--------------------------------------- Iteration      1(   3)  ---------------------------------------


    EDDIAG:  cpu time    2.6875: real time    2.7083
  RMM-DIIS:  cpu time    3.6764: real time    3.7028
    ORTHCH:  cpu time    0.6646: real time    0.6688
       DOS:  cpu time    0.0010: real time    0.0010
    --------------------------------------------
      LOOP:  cpu time    7.0295: real time    7.0808

 eigenvalue-minimisations  :  1920
 total energy-change (2. order) :-0.5410024E+03  (-0.5537376E+03)
 number of electron     396.0000000 magnetization 
 augmentation part      396.0000000 magnetization 

 DIPCOR: dipole corrections for dipol
 direction  3 min pos   164,
 dipolmoment           0.000000      0.000000      0.000069 electrons x Angstroem
 Tr[quadrupol]     -4128.493775

 energy correction for charged system         0.000000 eV
 dipol+quadrupol energy correction           -0.000000 eV
 added-field ion interaction        -32.829919 eV  (added to PSCEN)


 Free energy of the ion-electron system (eV)
  ---------------------------------------------------
  alpha Z        PSCENC =       685.24267776
  Ewald energy   TEWEN  =    164226.44806453
  -Hartree energ DENC   =   -212025.95640762
  -exchange      EXHF   =         0.00000000
  -V(xc)+E(xc)   XCENC  =      1613.73814842
  PAW double counting   =     44243.50493509   -48017.47383163
  entropy T*S    EENTRO =         0.00730859
  eigenvalues    EBANDS =      -591.85296700
  atomic energy  EATOM  =     50037.92390023
  Solvation  Ediel_sol  =         0.00000000
  ---------------------------------------------------
  free energy    TOTEN  =       171.58182837 eV

  energy without entropy =      171.57451978  energy(sigma->0) =      171.58000122


--------------------------------------------------------------------------------------------------------




--------------------------------------- Iteration      1(   4)  ---------------------------------------


    EDDIAG:  cpu time    2.6061: real time    2.6259
  RMM-DIIS:  cpu time    3.6809: real time    3.7074
    ORTHCH:  cpu time    0.6624: real time    0.6664
       DOS:  cpu time    0.0011: real time    0.0011
    --------------------------------------------
      LOOP:  cpu time    6.9504: real time    7.0007

 eigenvalue-minimisations  :  1920
 total energy-change (2. order) :-0.2120308E+03  (-0.9289385E+02)
 number of electron     396.0000000 magnetization 
 augmentation part      396.0000000 magnetization 

 DIPCOR: dipole corrections for dipol
 direction  3 min pos   164,
 dipolmoment           0.000000      0.000000      0.000069 electrons x Angstroem
 Tr[quadrupol]     -4128.493775

 energy correction for charged system         0.000000 eV
 dipol+quadrupol energy correction           -0.000000 eV
 added-field ion interaction        -32.829919 eV  (added to PSCEN)


 Free energy of the ion-electron system (eV)
  ---------------------------------------------------
  alpha Z        PSCENC =       685.24267776
  Ewald energy   TEWEN  =    164226.44806453
  -Hartree energ DENC   =   -212025.95640762
  -exchange      EXHF   =         0.00000000
  -V(xc)+E(xc)   XCENC  =      1613.73814842
  PAW double counting   =     44243.50493509   -48017.47383163
  entropy T*S    EENTRO =        -0.00524156
  eigenvalues    EBANDS =      -803.87117355
  atomic energy  EATOM  =     50037.92390023
  Solvation  Ediel_sol  =         0.00000000
  ---------------------------------------------------
  free energy    TOTEN  =       -40.44892833 eV

  energy without entropy =      -40.44368676  energy(sigma->0) =      -40.44761794


--------------------------------------------------------------------------------------------------------




--------------------------------------- Iteration      1(   5)  ---------------------------------------


    EDDIAG:  cpu time    2.6595: real time    2.6794
  RMM-DIIS:  cpu time    3.6853: real time    3.7117
    ORTHCH:  cpu time    0.6635: real time    0.6676
       DOS:  cpu time    0.0010: real time    0.0010
    --------------------------------------------
      LOOP:  cpu time    7.0094: real time    7.0598

 eigenvalue-minimisations  :  1920
 total energy-change (2. order) :-0.5223116E+02  (-0.3400228E+02)
 number of electron     396.0000000 magnetization 
 augmentation part      396.0000000 magnetization 

 DIPCOR: dipole corrections for dipol
 direction  3 min pos   164,
 dipolmoment           0.000000      0.000000      0.000069 electrons x Angstroem
 Tr[quadrupol]     -4128.493775

 energy correction for charged system         0.000000 eV
 dipol+quadrupol energy correction           -0.000000 eV
 added-field ion interaction        -32.829919 eV  (added to PSCEN)


 Free energy of the ion-electron system (eV)
  ---------------------------------------------------
  alpha Z        PSCENC =       685.24267776
  Ewald energy   TEWEN  =    164226.44806453
  -Hartree energ DENC   =   -212025.95640762
  -exchange      EXHF   =         0.00000000
  -V(xc)+E(xc)   XCENC  =      1613.73814842
  PAW double counting   =     44243.50493509   -48017.47383163
  entropy T*S    EENTRO =         0.01430667
  eigenvalues    EBANDS =      -856.12188294
  atomic energy  EATOM  =     50037.92390023
  Solvation  Ediel_sol  =         0.00000000
  ---------------------------------------------------
  free energy    TOTEN  =       -92.68008948 eV

  energy without entropy =      -92.69439615  energy(sigma->0) =      -92.68366615


--------------------------------------------------------------------------------------------------------




--------------------------------------- Iteration      1(   6)  ---------------------------------------


    EDDIAG:  cpu time    2.5989: real time    2.6181
  RMM-DIIS:  cpu time    3.6617: real time    3.6882
    ORTHCH:  cpu time    0.6635: real time    0.6678
       DOS:  cpu time    0.0010: real time    0.0010
    --------------------------------------------
      LOOP:  cpu time    6.9252: real time    6.9751

 eigenvalue-minimisations  :  1920
 total energy-change (2. order) :-0.2260823E+02  (-0.1686836E+02)
 number of electron     396.0000000 magnetization 
 augmentation part      396.0000000 magnetization 

 DIPCOR: dipole corrections for dipol
 direction  3 min pos   164,
 dipolmoment           0.000000      0.000000      0.000069 electrons x Angstroem
 Tr[quadrupol]     -4128.493775

 energy correction for charged system         0.000000 eV
 dipol+quadrupol energy correction           -0.000000 eV
 added-field ion interaction        -32.829919 eV  (added to PSCEN)


 Free energy of the ion-electron system (eV)
  ---------------------------------------------------
  alpha Z        PSCENC =       685.24267776
  Ewald energy   TEWEN  =    164226.44806453
  -Hartree energ DENC   =   -212025.95640762
  -exchange      EXHF   =         0.00000000
  -V(xc)+E(xc)   XCENC  =      1613.73814842
  PAW double counting   =     44243.50493509   -48017.47383163
  entropy T*S    EENTRO =        -0.00279490
  eigenvalues    EBANDS =      -878.71301586
  atomic energy  EATOM  =     50037.92390023
  Solvation  Ediel_sol  =         0.00000000
  ---------------------------------------------------
  free energy    TOTEN  =      -115.28832398 eV

  energy without entropy =     -115.28552908  energy(sigma->0) =     -115.28762525


--------------------------------------------------------------------------------------------------------




--------------------------------------- Iteration      1(   7)  ---------------------------------------


    EDDIAG:  cpu time    2.5969: real time    2.6164
  RMM-DIIS:  cpu time    3.6783: real time    3.7048
    ORTHCH:  cpu time    0.6637: real time    0.6678
       DOS:  cpu time    0.0011: real time    0.0011
    --------------------------------------------
      LOOP:  cpu time    6.9400: real time    6.9901

 eigenvalue-minimisations  :  1920
 total energy-change (2. order) :-0.1107030E+02  (-0.9104533E+01)
 number of electron     396.0000000 magnetization 
 augmentation part      396.0000000 magnetization 

 DIPCOR: dipole corrections for dipol
 direction  3 min pos   164,
 dipolmoment           0.000000      0.000000      0.000069 electrons x Angstroem
 Tr[quadrupol]     -4128.493775

 energy correction for charged system         0.000000 eV
 dipol+quadrupol energy correction           -0.000000 eV
 added-field ion interaction        -32.829919 eV  (added to PSCEN)


 Free energy of the ion-electron system (eV)
  ---------------------------------------------------
  alpha Z        PSCENC =       685.24267776
  Ewald energy   TEWEN  =    164226.44806453
  -Hartree energ DENC   =   -212025.95640762
  -exchange      EXHF   =         0.00000000
  -V(xc)+E(xc)   XCENC  =      1613.73814842
  PAW double counting   =     44243.50493509   -48017.47383163
  entropy T*S    EENTRO =         0.07386610
  eigenvalues    EBANDS =      -889.85997191
  atomic energy  EATOM  =     50037.92390023
  Solvation  Ediel_sol  =         0.00000000
  ---------------------------------------------------
  free energy    TOTEN  =      -126.35861903 eV

  energy without entropy =     -126.43248513  energy(sigma->0) =     -126.37708556


--------------------------------------------------------------------------------------------------------




--------------------------------------- Iteration      1(   8)  ---------------------------------------


    EDDIAG:  cpu time    2.6918: real time    2.7121
  RMM-DIIS:  cpu time    3.7405: real time    3.7671
    ORTHCH:  cpu time    0.6646: real time    0.6689
       DOS:  cpu time    0.0011: real time    0.0011
    --------------------------------------------
      LOOP:  cpu time    7.0980: real time    7.1491

 eigenvalue-minimisations  :  1920
 total energy-change (2. order) :-0.5483847E+01  (-0.4719850E+01)
 number of electron     396.0000000 magnetization 
 augmentation part      396.0000000 magnetization 

 DIPCOR: dipole corrections for dipol
 direction  3 min pos   164,
 dipolmoment           0.000000      0.000000      0.000069 electrons x Angstroem
 Tr[quadrupol]     -4128.493775

 energy correction for charged system         0.000000 eV
 dipol+quadrupol energy correction           -0.000000 eV
 added-field ion interaction        -32.829919 eV  (added to PSCEN)


 Free energy of the ion-electron system (eV)
  ---------------------------------------------------
  alpha Z        PSCENC =       685.24267776
  Ewald energy   TEWEN  =    164226.44806453
  -Hartree energ DENC   =   -212025.95640762
  -exchange      EXHF   =         0.00000000
  -V(xc)+E(xc)   XCENC  =      1613.73814842
  PAW double counting   =     44243.50493509   -48017.47383163
  entropy T*S    EENTRO =         0.10955930
  eigenvalues    EBANDS =      -895.37951202
  atomic energy  EATOM  =     50037.92390023
  Solvation  Ediel_sol  =         0.00000000
  ---------------------------------------------------
  free energy    TOTEN  =      -131.84246594 eV

  energy without entropy =     -131.95202524  energy(sigma->0) =     -131.86985576


--------------------------------------------------------------------------------------------------------




--------------------------------------- Iteration      1(   9)  ---------------------------------------


    EDDIAG:  cpu time    2.5985: real time    2.6177
  RMM-DIIS:  cpu time   10.0549: real time   10.1316
    ORTHCH:  cpu time    0.6642: real time    0.6684
       DOS:  cpu time    0.0011: real time    0.0011
    --------------------------------------------
      LOOP:  cpu time   13.3185: real time   13.4187

 eigenvalue-minimisations  :  5545
 total energy-change (2. order) :-0.4761947E+01  (-0.4589277E+01)
 number of electron     396.0000000 magnetization 
 augmentation part      396.0000000 magnetization 

 DIPCOR: dipole corrections for dipol
 direction  3 min pos   164,
 dipolmoment           0.000000      0.000000      0.000069 electrons x Angstroem
 Tr[quadrupol]     -4128.493775

 energy correction for charged system         0.000000 eV
 dipol+quadrupol energy correction           -0.000000 eV
 added-field ion interaction        -32.829919 eV  (added to PSCEN)


 Free energy of the ion-electron system (eV)
  ---------------------------------------------------
  alpha Z        PSCENC =       685.24267776
  Ewald energy   TEWEN  =    164226.44806453
  -Hartree energ DENC   =   -212025.95640762
  -exchange      EXHF   =         0.00000000
  -V(xc)+E(xc)   XCENC  =      1613.73814842
  PAW double counting   =     44243.50493509   -48017.47383163
  entropy T*S    EENTRO =         0.11178126
  eigenvalues    EBANDS =      -900.14368064
  atomic energy  EATOM  =     50037.92390023
  Solvation  Ediel_sol  =         0.00000000
  ---------------------------------------------------
  free energy    TOTEN  =      -136.60441259 eV

  energy without entropy =     -136.71619386  energy(sigma->0) =     -136.63235791


--------------------------------------------------------------------------------------------------------




--------------------------------------- Iteration      1(  10)  ---------------------------------------


    EDDIAG:  cpu time    2.6634: real time    2.6828
  RMM-DIIS:  cpu time    8.0656: real time    8.1229
    ORTHCH:  cpu time    0.6635: real time    0.6675
       DOS:  cpu time    0.0011: real time    0.0011
    --------------------------------------------
      LOOP:  cpu time   11.3935: real time   11.4742

 eigenvalue-minimisations  :  4501
 total energy-change (2. order) :-0.9145311E-01  (-0.2074584E+00)
 number of electron     396.0000000 magnetization 
 augmentation part      396.0000000 magnetization 

 DIPCOR: dipole corrections for dipol
 direction  3 min pos   164,
 dipolmoment           0.000000      0.000000      0.000069 electrons x Angstroem
 Tr[quadrupol]     -4128.493775

 energy correction for charged system         0.000000 eV
 dipol+quadrupol energy correction           -0.000000 eV
 added-field ion interaction        -32.829919 eV  (added to PSCEN)


 Free energy of the ion-electron system (eV)
  ---------------------------------------------------
  alpha Z        PSCENC =       685.24267776
  Ewald energy   TEWEN  =    164226.44806453
  -Hartree energ DENC   =   -212025.95640762
  -exchange      EXHF   =         0.00000000
  -V(xc)+E(xc)   XCENC  =      1613.73814842
  PAW double counting   =     44243.50493509   -48017.47383163
  entropy T*S    EENTRO =         0.10180684
  eigenvalues    EBANDS =      -900.22515933
  atomic energy  EATOM  =     50037.92390023
  Solvation  Ediel_sol  =         0.00000000
  ---------------------------------------------------
  free energy    TOTEN  =      -136.69586570 eV

  energy without entropy =     -136.79767255  energy(sigma->0) =     -136.72131742


--------------------------------------------------------------------------------------------------------




--------------------------------------- Iteration      1(  11)  ---------------------------------------


    EDDIAG:  cpu time    2.5990: real time    2.6189
  RMM-DIIS:  cpu time   10.2476: real time   10.3200
    ORTHCH:  cpu time    0.6600: real time    0.6643
       DOS:  cpu time    0.0011: real time    0.0011
    --------------------------------------------
      LOOP:  cpu time   13.5077: real time   13.6042

 eigenvalue-minimisations  :  5591
 total energy-change (2. order) :-0.3486512E-01  (-0.2916599E-01)
 number of electron     396.0000000 magnetization 
 augmentation part      396.0000000 magnetization 

 DIPCOR: dipole corrections for dipol
 direction  3 min pos   164,
 dipolmoment           0.000000      0.000000      0.000069 electrons x Angstroem
 Tr[quadrupol]     -4128.493775

 energy correction for charged system         0.000000 eV
 dipol+quadrupol energy correction           -0.000000 eV
 added-field ion interaction        -32.829919 eV  (added to PSCEN)


 Free energy of the ion-electron system (eV)
  ---------------------------------------------------
  alpha Z        PSCENC =       685.24267776
  Ewald energy   TEWEN  =    164226.44806453
  -Hartree energ DENC   =   -212025.95640762
  -exchange      EXHF   =         0.00000000
  -V(xc)+E(xc)   XCENC  =      1613.73814842
  PAW double counting   =     44243.50493509   -48017.47383163
  entropy T*S    EENTRO =         0.10141286
  eigenvalues    EBANDS =      -900.25963047
  atomic energy  EATOM  =     50037.92390023
  Solvation  Ediel_sol  =         0.00000000
  ---------------------------------------------------
  free energy    TOTEN  =      -136.73073082 eV

  energy without entropy =     -136.83214369  energy(sigma->0) =     -136.75608404


--------------------------------------------------------------------------------------------------------




--------------------------------------- Iteration      1(  12)  ---------------------------------------


    EDDIAG:  cpu time    2.5970: real time    2.6169
  RMM-DIIS:  cpu time    7.9709: real time    8.0280
    ORTHCH:  cpu time    0.6609: real time    0.6651
       DOS:  cpu time    0.0010: real time    0.0010
    CHARGE:  cpu time    0.6806: real time    0.6860
    MIXING:  cpu time    0.0047: real time    0.0048
    --------------------------------------------
      LOOP:  cpu time   11.9152: real time   12.0018

 eigenvalue-minimisations  :  4434
 total energy-change (2. order) :-0.5399624E-03  (-0.5436616E-03)
 number of electron     395.9998211 magnetization 
 augmentation part      235.9705200 magnetization 

 DIPCOR: dipole corrections for dipol
 direction  3 min pos   164,
 dipolmoment           0.000000      0.000000      0.000069 electrons x Angstroem
 Tr[quadrupol]     -4128.493775

 energy correction for charged system         0.000000 eV
 dipol+quadrupol energy correction           -0.000000 eV
 added-field ion interaction        -32.829919 eV  (added to PSCEN)


 Broyden mixing:
  rms(total) = 0.43349E+01    rms(broyden)= 0.43347E+01
  rms(prec ) = 0.48984E+01
  weight for this iteration     100.00

 Free energy of the ion-electron system (eV)
  ---------------------------------------------------
  alpha Z        PSCENC =       685.24267776
  Ewald energy   TEWEN  =    164226.44806453
  -Hartree energ DENC   =   -212025.95640762
  -exchange      EXHF   =         0.00000000
  -V(xc)+E(xc)   XCENC  =      1613.73814842
  PAW double counting   =     44243.50493509   -48017.47383163
  entropy T*S    EENTRO =         0.10141516
  eigenvalues    EBANDS =      -900.26017273
  atomic energy  EATOM  =     50037.92390023
  Solvation  Ediel_sol  =         0.00000000
  ---------------------------------------------------
  free energy    TOTEN  =      -136.73127079 eV

  energy without entropy =     -136.83268595  energy(sigma->0) =     -136.75662458


--------------------------------------------------------------------------------------------------------




--------------------------------------- Iteration      1(  13)  ---------------------------------------


    POTLOK:  cpu time    0.0853: real time    0.0865
    SETDIJ:  cpu time    0.0058: real time    0.0058
    EDDIAG:  cpu time    2.6021: real time    2.6215
  RMM-DIIS:  cpu time    8.4386: real time    8.4985
    ORTHCH:  cpu time    0.6574: real time    0.6616
       DOS:  cpu time    0.0011: real time    0.0011
    CHARGE:  cpu time    0.6331: real time    0.6380
    MIXING:  cpu time    0.0041: real time    0.0098
    --------------------------------------------
      LOOP:  cpu time   12.4275: real time   12.5227

 eigenvalue-minimisations  :  4625
 total energy-change (2. order) :-0.8512934E+02  (-0.5180257E+02)
 number of electron     395.9997896 magnetization 
 augmentation part      248.5692248 magnetization 

 DIPCOR: dipole corrections for dipol
 direction  3 min pos   163,
 dipolmoment           0.000000      0.000000      4.051123 electrons x Angstroem
 Tr[quadrupol]     -4129.993154

 energy correction for charged system         0.000000 eV
 dipol+quadrupol energy correction           -1.124850 eV
 added-field ion interaction         19.154812 eV  (added to PSCEN)


 Broyden mixing:
  rms(total) = 0.71867E+01    rms(broyden)= 0.71864E+01
  rms(prec ) = 0.10435E+02
  weight for this iteration     100.00

 eigenvalues of (default mixing * dielectric matrix)
  average eigenvalue GAMMA=   0.3117
  0.3117

 Free energy of the ion-electron system (eV)
  ---------------------------------------------------
  alpha Z        PSCENC =       736.10255896
  Ewald energy   TEWEN  =    164226.44806453
  -Hartree energ DENC   =   -211078.08106629
  -exchange      EXHF   =         0.00000000
  -V(xc)+E(xc)   XCENC  =      1568.94394394
  PAW double counting   =     44395.05145403   -47986.83610006
  entropy T*S    EENTRO =        -0.03660726
  eigenvalues    EBANDS =     -2121.37676275
  atomic energy  EATOM  =     50037.92390023
  Solvation  Ediel_sol  =         0.00000000
  ---------------------------------------------------
  free energy    TOTEN  =      -221.86061468 eV

  energy without entropy =     -221.82400741  energy(sigma->0) =     -221.85146286


--------------------------------------------------------------------------------------------------------




--------------------------------------- Iteration      1(  14)  ---------------------------------------


    POTLOK:  cpu time    0.0776: real time    0.0798
    SETDIJ:  cpu time    0.0054: real time    0.0055
    EDDIAG:  cpu time    2.6102: real time    2.6293
  RMM-DIIS:  cpu time    7.4753: real time    7.5276
    ORTHCH:  cpu time    0.6637: real time    0.6679
       DOS:  cpu time    0.0011: real time    0.0011
    CHARGE:  cpu time    0.6511: real time    0.6564
    MIXING:  cpu time    0.0036: real time    0.0043
    --------------------------------------------
      LOOP:  cpu time   11.4880: real time   11.5718

 eigenvalue-minimisations  :  4092
 total energy-change (2. order) : 0.8537539E+02  (-0.1373639E+02)
 number of electron     395.9997933 magnetization 
 augmentation part      263.0290911 magnetization 

 DIPCOR: dipole corrections for dipol
 direction  3 min pos   171,
 dipolmoment           0.000000      0.000000     -0.066171 electrons x Angstroem
 Tr[quadrupol]     -4130.387371

 energy correction for charged system         0.000000 eV
 dipol+quadrupol energy correction           -0.000300 eV
 added-field ion interaction       -108.320554 eV  (added to PSCEN)


 Broyden mixing:
  rms(total) = 0.29550E+01    rms(broyden)= 0.29546E+01
  rms(prec ) = 0.32711E+01
  weight for this iteration     100.00

 eigenvalues of (default mixing * dielectric matrix)
  average eigenvalue GAMMA=   0.4131
  0.6078  0.2183

 Free energy of the ion-electron system (eV)
  ---------------------------------------------------
  alpha Z        PSCENC =       609.75174195
  Ewald energy   TEWEN  =    164226.44806453
  -Hartree energ DENC   =   -211111.55874621
  -exchange      EXHF   =         0.00000000
  -V(xc)+E(xc)   XCENC  =      1567.16188421
  PAW double counting   =     44454.62459756   -48079.70948898
  entropy T*S    EENTRO =        -0.00371206
  eigenvalues    EBANDS =     -1841.12347008
  atomic energy  EATOM  =     50037.92390023
  Solvation  Ediel_sol  =         0.00000000
  ---------------------------------------------------
  free energy    TOTEN  =      -136.48522884 eV

  energy without entropy =     -136.48151678  energy(sigma->0) =     -136.48430083


--------------------------------------------------------------------------------------------------------




--------------------------------------- Iteration      1(  15)  ---------------------------------------


    POTLOK:  cpu time    0.0777: real time    0.0790
    SETDIJ:  cpu time    0.0056: real time    0.0056
    EDDIAG:  cpu time    2.6008: real time    2.6198
  RMM-DIIS:  cpu time    7.4226: real time    7.4745
    ORTHCH:  cpu time    0.6664: real time    0.6705
       DOS:  cpu time    0.0011: real time    0.0011
    CHARGE:  cpu time    0.6864: real time    0.6917
    MIXING:  cpu time    0.0028: real time    0.0035
    --------------------------------------------
      LOOP:  cpu time   11.4634: real time   11.5456

 eigenvalue-minimisations  :  4043
 total energy-change (2. order) : 0.2527157E+02  (-0.5505172E+01)
 number of electron     395.9997989 magnetization 
 augmentation part      256.7156744 magnetization 

 DIPCOR: dipole corrections for dipol
 direction  3 min pos   176,
 dipolmoment           0.000000      0.000000      0.427095 electrons x Angstroem
 Tr[quadrupol]     -4131.581780

 energy correction for charged system         0.000000 eV
 dipol+quadrupol energy correction           -0.012502 eV
 added-field ion interaction       -126.189645 eV  (added to PSCEN)


 Broyden mixing:
  rms(total) = 0.10141E+01    rms(broyden)= 0.10140E+01
  rms(prec ) = 0.11939E+01
  weight for this iteration     100.00

 eigenvalues of (default mixing * dielectric matrix)
  average eigenvalue GAMMA=   0.5451
  0.2339  0.7006  0.7006

 Free energy of the ion-electron system (eV)
  ---------------------------------------------------
  alpha Z        PSCENC =       591.87044944
  Ewald energy   TEWEN  =    164226.44806453
  -Hartree energ DENC   =   -211356.45340596
  -exchange      EXHF   =         0.00000000
  -V(xc)+E(xc)   XCENC  =      1578.98916693
  PAW double counting   =     45067.16374444   -48819.26508876
  entropy T*S    EENTRO =         0.02377647
  eigenvalues    EBANDS =     -1437.91426891
  atomic energy  EATOM  =     50037.92390023
  Solvation  Ediel_sol  =         0.00000000
  ---------------------------------------------------
  free energy    TOTEN  =      -111.21366159 eV

  energy without entropy =     -111.23743805  energy(sigma->0) =     -111.21960570


--------------------------------------------------------------------------------------------------------




--------------------------------------- Iteration      1(  16)  ---------------------------------------


    POTLOK:  cpu time    0.0813: real time    0.0824
    SETDIJ:  cpu time    0.0057: real time    0.0057
    EDDIAG:  cpu time    2.6081: real time    2.6266
  RMM-DIIS:  cpu time    7.1942: real time    7.2462
    ORTHCH:  cpu time    0.6645: real time    0.6686
       DOS:  cpu time    0.0010: real time    0.0010
    CHARGE:  cpu time    0.6433: real time    0.6483
    MIXING:  cpu time    0.0042: real time    0.0042
    --------------------------------------------
      LOOP:  cpu time   11.2022: real time   11.2830

 eigenvalue-minimisations  :  4029
 total energy-change (2. order) : 0.2378996E+01  (-0.7218229E+00)
 number of electron     395.9997998 magnetization 
 augmentation part      254.4134712 magnetization 

 DIPCOR: dipole corrections for dipol
 direction  3 min pos   160,
 dipolmoment           0.000000      0.000000      0.711516 electrons x Angstroem
 Tr[quadrupol]     -4131.383375

 energy correction for charged system         0.000000 eV
 dipol+quadrupol energy correction           -0.034699 eV
 added-field ion interaction          5.728912 eV  (added to PSCEN)


 Broyden mixing:
  rms(total) = 0.54513E+00    rms(broyden)= 0.54512E+00
  rms(prec ) = 0.63252E+00
  weight for this iteration     100.00

 eigenvalues of (default mixing * dielectric matrix)
  average eigenvalue GAMMA=   0.6857
  1.3554  0.2299  0.5789  0.5789

 Free energy of the ion-electron system (eV)
  ---------------------------------------------------
  alpha Z        PSCENC =       723.76680974
  Ewald energy   TEWEN  =    164226.44806453
  -Hartree energ DENC   =   -211464.44639073
  -exchange      EXHF   =         0.00000000
  -V(xc)+E(xc)   XCENC  =      1581.73629586
  PAW double counting   =     45500.32148251   -49299.32117963
  entropy T*S    EENTRO =         0.02890188
  eigenvalues    EBANDS =     -1415.29254969
  atomic energy  EATOM  =     50037.92390023
  Solvation  Ediel_sol  =         0.00000000
  ---------------------------------------------------
  free energy    TOTEN  =      -108.83466531 eV

  energy without entropy =     -108.86356719  energy(sigma->0) =     -108.84189078


--------------------------------------------------------------------------------------------------------




--------------------------------------- Iteration      1(  17)  ---------------------------------------


    POTLOK:  cpu time    0.0780: real time    0.0792
    SETDIJ:  cpu time    0.0055: real time    0.0055
    EDDIAG:  cpu time    2.5968: real time    2.6154
  RMM-DIIS:  cpu time    7.3931: real time    7.4463
    ORTHCH:  cpu time    0.6642: real time    0.6683
       DOS:  cpu time    0.0010: real time    0.0010
    CHARGE:  cpu time    0.6288: real time    0.6337
    MIXING:  cpu time    0.0032: real time    0.0032
    --------------------------------------------
      LOOP:  cpu time   11.3705: real time   11.4527

 eigenvalue-minimisations  :  4092
 total energy-change (2. order) : 0.5963244E+00  (-0.4305450E+00)
 number of electron     395.9998006 magnetization 
 augmentation part      253.2752893 magnetization 

 DIPCOR: dipole corrections for dipol
 direction  3 min pos   153,
 dipolmoment           0.000000      0.000000      0.773907 electrons x Angstroem
 Tr[quadrupol]     -4131.043512

 energy correction for charged system         0.000000 eV
 dipol+quadrupol energy correction           -0.041051 eV
 added-field ion interaction         52.223740 eV  (added to PSCEN)


 Broyden mixing:
  rms(total) = 0.20003E+00    rms(broyden)= 0.20000E+00
  rms(prec ) = 0.26160E+00
  weight for this iteration     100.00

 eigenvalues of (default mixing * dielectric matrix)
  average eigenvalue GAMMA=   0.7386
  1.4296  0.8099  0.8099  0.2307  0.4131

 Free energy of the ion-electron system (eV)
  ---------------------------------------------------
  alpha Z        PSCENC =       770.25528553
  Ewald energy   TEWEN  =    164226.44806453
  -Hartree energ DENC   =   -211510.02086546
  -exchange      EXHF   =         0.00000000
  -V(xc)+E(xc)   XCENC  =      1582.67147770
  PAW double counting   =     45915.99258391   -49745.62069262
  entropy T*S    EENTRO =         0.01318061
  eigenvalues    EBANDS =     -1385.90127534
  atomic energy  EATOM  =     50037.92390023
  Solvation  Ediel_sol  =         0.00000000
  ---------------------------------------------------
  free energy    TOTEN  =      -108.23834090 eV

  energy without entropy =     -108.25152151  energy(sigma->0) =     -108.24163606


--------------------------------------------------------------------------------------------------------




--------------------------------------- Iteration      1(  18)  ---------------------------------------


    POTLOK:  cpu time    0.0815: real time    0.0825
    SETDIJ:  cpu time    0.0058: real time    0.0058
    EDDIAG:  cpu time    2.6049: real time    2.6233
  RMM-DIIS:  cpu time    7.6106: real time    7.6639
    ORTHCH:  cpu time    0.6619: real time    0.6660
       DOS:  cpu time    0.0010: real time    0.0010
    CHARGE:  cpu time    0.6230: real time    0.6278
    MIXING:  cpu time    0.0036: real time    0.0036
    --------------------------------------------
      LOOP:  cpu time   11.5923: real time   11.6739

 eigenvalue-minimisations  :  4195
 total energy-change (2. order) : 0.9842353E-01  (-0.4208056E-01)
 number of electron     395.9998003 magnetization 
 augmentation part      253.4271592 magnetization 

 DIPCOR: dipole corrections for dipol
 direction  3 min pos   150,
 dipolmoment           0.000000      0.000000      0.919879 electrons x Angstroem
 Tr[quadrupol]     -4130.931528

 energy correction for charged system         0.000000 eV
 dipol+quadrupol energy correction           -0.057997 eV
 added-field ion interaction         64.796744 eV  (added to PSCEN)


 Broyden mixing:
  rms(total) = 0.10702E+00    rms(broyden)= 0.10702E+00
  rms(prec ) = 0.12353E+00
  weight for this iteration     100.00

 eigenvalues of (default mixing * dielectric matrix)
  average eigenvalue GAMMA=   0.8065
  2.1061  0.8325  0.8325  0.2311  0.4900  0.3466

 Free energy of the ion-electron system (eV)
  ---------------------------------------------------
  alpha Z        PSCENC =       782.81134333
  Ewald energy   TEWEN  =    164226.44806453
  -Hartree energ DENC   =   -211516.94911426
  -exchange      EXHF   =         0.00000000
  -V(xc)+E(xc)   XCENC  =      1581.99455919
  PAW double counting   =     46083.16717187   -49917.36835932
  entropy T*S    EENTRO =         0.01135991
  eigenvalues    EBANDS =     -1386.17884286
  atomic energy  EATOM  =     50037.92390023
  Solvation  Ediel_sol  =         0.00000000
  ---------------------------------------------------
  free energy    TOTEN  =      -108.13991738 eV

  energy without entropy =     -108.15127729  energy(sigma->0) =     -108.14275736


--------------------------------------------------------------------------------------------------------




--------------------------------------- Iteration      1(  19)  ---------------------------------------


    POTLOK:  cpu time    0.0793: real time    0.0802
    SETDIJ:  cpu time    0.0056: real time    0.0056
    EDDIAG:  cpu time    2.5995: real time    2.6180
  RMM-DIIS:  cpu time    7.5050: real time    7.5583
    ORTHCH:  cpu time    0.6595: real time    0.6636
       DOS:  cpu time    0.0010: real time    0.0010
    CHARGE:  cpu time    0.6555: real time    0.6606
    MIXING:  cpu time    0.0039: real time    0.0039
    --------------------------------------------
      LOOP:  cpu time   11.5095: real time   11.5913

 eigenvalue-minimisations  :  4146
 total energy-change (2. order) : 0.3735894E-01  (-0.1241336E-01)
 number of electron     395.9998002 magnetization 
 augmentation part      253.5591418 magnetization 

 DIPCOR: dipole corrections for dipol
 direction  3 min pos   149,
 dipolmoment           0.000000      0.000000      0.911988 electrons x Angstroem
 Tr[quadrupol]     -4131.399988

 energy correction for charged system         0.000000 eV
 dipol+quadrupol energy correction           -0.057006 eV
 added-field ion interaction         71.224735 eV  (added to PSCEN)


 Broyden mixing:
  rms(total) = 0.48180E-01    rms(broyden)= 0.48178E-01
  rms(prec ) = 0.59377E-01
  weight for this iteration     100.00

 eigenvalues of (default mixing * dielectric matrix)
  average eigenvalue GAMMA=   0.8822
  2.4251  1.0483  0.8200  0.8200  0.2310  0.4663  0.3649

 Free energy of the ion-electron system (eV)
  ---------------------------------------------------
  alpha Z        PSCENC =       789.24032489
  Ewald energy   TEWEN  =    164226.44806453
  -Hartree energ DENC   =   -211531.45500883
  -exchange      EXHF   =         0.00000000
  -V(xc)+E(xc)   XCENC  =      1581.43774785
  PAW double counting   =     46302.12660039   -50142.64882524
  entropy T*S    EENTRO =         0.00619452
  eigenvalues    EBANDS =     -1371.18155678
  atomic energy  EATOM  =     50037.92390023
  Solvation  Ediel_sol  =         0.00000000
  ---------------------------------------------------
  free energy    TOTEN  =      -108.10255844 eV

  energy without entropy =     -108.10875296  energy(sigma->0) =     -108.10410707


--------------------------------------------------------------------------------------------------------




--------------------------------------- Iteration      1(  20)  ---------------------------------------


    POTLOK:  cpu time    0.0803: real time    0.0819
    SETDIJ:  cpu time    0.0057: real time    0.0057
    EDDIAG:  cpu time    2.6012: real time    2.6203
  RMM-DIIS:  cpu time    7.5517: real time    7.6054
    ORTHCH:  cpu time    0.6664: real time    0.6707
       DOS:  cpu time    0.0011: real time    0.0011
    CHARGE:  cpu time    0.6645: real time    0.6693
    MIXING:  cpu time    0.0050: real time    0.0051
    --------------------------------------------
      LOOP:  cpu time   11.5759: real time   11.6595

 eigenvalue-minimisations  :  4140
 total energy-change (2. order) : 0.1365331E-01  (-0.3618480E-02)
 number of electron     395.9998001 magnetization 
 augmentation part      253.6647850 magnetization 

 DIPCOR: dipole corrections for dipol
 direction  3 min pos   148,
 dipolmoment           0.000000      0.000000      0.906958 electrons x Angstroem
 Tr[quadrupol]     -4131.753044

 energy correction for charged system         0.000000 eV
 dipol+quadrupol energy correction           -0.056379 eV
 added-field ion interaction         77.554074 eV  (added to PSCEN)


 Broyden mixing:
  rms(total) = 0.36136E-01    rms(broyden)= 0.36135E-01
  rms(prec ) = 0.44619E-01
  weight for this iteration     100.00

 eigenvalues of (default mixing * dielectric matrix)
  average eigenvalue GAMMA=   0.9394
  2.3548  1.6929  0.9736  0.7208  0.7208  0.2309  0.4447  0.3765

 Free energy of the ion-electron system (eV)
  ---------------------------------------------------
  alpha Z        PSCENC =       795.57029107
  Ewald energy   TEWEN  =    164226.44806453
  -Hartree energ DENC   =   -211547.39774411
  -exchange      EXHF   =         0.00000000
  -V(xc)+E(xc)   XCENC  =      1581.19443402
  PAW double counting   =     46405.71627871   -50247.85106672
  entropy T*S    EENTRO =         0.00194398
  eigenvalues    EBANDS =     -1359.69500684
  atomic energy  EATOM  =     50037.92390023
  Solvation  Ediel_sol  =         0.00000000
  ---------------------------------------------------
  free energy    TOTEN  =      -108.08890513 eV

  energy without entropy =     -108.09084911  energy(sigma->0) =     -108.08939113


--------------------------------------------------------------------------------------------------------




--------------------------------------- Iteration      1(  21)  ---------------------------------------


    POTLOK:  cpu time    0.0817: real time    0.0828
    SETDIJ:  cpu time    0.0056: real time    0.0056
    EDDIAG:  cpu time    2.5969: real time    2.6156
  RMM-DIIS:  cpu time    7.5148: real time    7.5675
    ORTHCH:  cpu time    0.6687: real time    0.6729
       DOS:  cpu time    0.0010: real time    0.0010
    CHARGE:  cpu time    0.6677: real time    0.6731
    MIXING:  cpu time    0.0044: real time    0.0044
    --------------------------------------------
      LOOP:  cpu time   11.5407: real time   11.6230

 eigenvalue-minimisations  :  4172
 total energy-change (2. order) : 0.8963558E-02  (-0.1980430E-02)
 number of electron     395.9998002 magnetization 
 augmentation part      253.5572855 magnetization 

 DIPCOR: dipole corrections for dipol
 direction  3 min pos   148,
 dipolmoment           0.000000      0.000000      0.913168 electrons x Angstroem
 Tr[quadrupol]     -4132.090014

 energy correction for charged system         0.000000 eV
 dipol+quadrupol energy correction           -0.057154 eV
 added-field ion interaction         77.178157 eV  (added to PSCEN)


 Broyden mixing:
  rms(total) = 0.22702E-01    rms(broyden)= 0.22700E-01
  rms(prec ) = 0.27973E-01
  weight for this iteration     100.00

 eigenvalues of (default mixing * dielectric matrix)
  average eigenvalue GAMMA=   0.9159
  2.1811  2.0863  1.0283  0.7362  0.7362  0.2309  0.4554  0.3762  0.4127

 Free energy of the ion-electron system (eV)
  ---------------------------------------------------
  alpha Z        PSCENC =       795.19359931
  Ewald energy   TEWEN  =    164226.44806453
  -Hartree energ DENC   =   -211568.34302540
  -exchange      EXHF   =         0.00000000
  -V(xc)+E(xc)   XCENC  =      1581.40624547
  PAW double counting   =     46428.20097008   -50271.19395272
  entropy T*S    EENTRO =        -0.00175910
  eigenvalues    EBANDS =     -1337.71398396
  atomic energy  EATOM  =     50037.92390023
  Solvation  Ediel_sol  =         0.00000000
  ---------------------------------------------------
  free energy    TOTEN  =      -108.07994157 eV

  energy without entropy =     -108.07818247  energy(sigma->0) =     -108.07950180


--------------------------------------------------------------------------------------------------------




--------------------------------------- Iteration      1(  22)  ---------------------------------------


    POTLOK:  cpu time    0.0786: real time    0.0802
    SETDIJ:  cpu time    0.0056: real time    0.0056
    EDDIAG:  cpu time    2.6107: real time    2.6294
  RMM-DIIS:  cpu time    7.4418: real time    7.4942
    ORTHCH:  cpu time    0.6640: real time    0.6681
       DOS:  cpu time    0.0011: real time    0.0011
    CHARGE:  cpu time    0.6629: real time    0.6683
    MIXING:  cpu time    0.0046: real time    0.0047
    --------------------------------------------
      LOOP:  cpu time   11.4693: real time   11.5514

 eigenvalue-minimisations  :  4121
 total energy-change (2. order) : 0.4471310E-02  (-0.5006558E-03)
 number of electron     395.9998001 magnetization 
 augmentation part      253.5714590 magnetization 

 DIPCOR: dipole corrections for dipol
 direction  3 min pos   148,
 dipolmoment           0.000000      0.000000      0.904996 electrons x Angstroem
 Tr[quadrupol]     -4132.276182

 energy correction for charged system         0.000000 eV
 dipol+quadrupol energy correction           -0.056135 eV
 added-field ion interaction         77.672807 eV  (added to PSCEN)


 Broyden mixing:
  rms(total) = 0.16333E-01    rms(broyden)= 0.16332E-01
  rms(prec ) = 0.20243E-01
  weight for this iteration     100.00

 eigenvalues of (default mixing * dielectric matrix)
  average eigenvalue GAMMA=   0.9597
  2.4326  2.4326  1.0194  0.7751  0.7751  0.6866  0.2309  0.4663  0.3891  0.3891

 Free energy of the ion-electron system (eV)
  ---------------------------------------------------
  alpha Z        PSCENC =       795.68926840
  Ewald energy   TEWEN  =    164226.44806453
  -Hartree energ DENC   =   -211577.59588249
  -exchange      EXHF   =         0.00000000
  -V(xc)+E(xc)   XCENC  =      1581.44115737
  PAW double counting   =     46424.57338458   -50266.73242621
  entropy T*S    EENTRO =        -0.00297610
  eigenvalues    EBANDS =     -1329.81996055
  atomic energy  EATOM  =     50037.92390023
  Solvation  Ediel_sol  =         0.00000000
  ---------------------------------------------------
  free energy    TOTEN  =      -108.07547026 eV

  energy without entropy =     -108.07249416  energy(sigma->0) =     -108.07472624


--------------------------------------------------------------------------------------------------------




--------------------------------------- Iteration      1(  23)  ---------------------------------------


    POTLOK:  cpu time    0.0810: real time    0.0819
    SETDIJ:  cpu time    0.0055: real time    0.0056
    EDDIAG:  cpu time    2.6140: real time    2.6325
  RMM-DIIS:  cpu time    7.3644: real time    7.4163
    ORTHCH:  cpu time    0.6618: real time    0.6660
       DOS:  cpu time    0.0010: real time    0.0010
    CHARGE:  cpu time    0.6700: real time    0.6751
    MIXING:  cpu time    0.0051: real time    0.0060
    --------------------------------------------
      LOOP:  cpu time   11.4029: real time   11.4843

 eigenvalue-minimisations  :  4104
 total energy-change (2. order) : 0.2978951E-02  (-0.3851985E-03)
 number of electron     395.9998001 magnetization 
 augmentation part      253.6158780 magnetization 

 DIPCOR: dipole corrections for dipol
 direction  3 min pos   149,
 dipolmoment           0.000000      0.000000      0.885059 electrons x Angstroem
 Tr[quadrupol]     -4132.615084

 energy correction for charged system         0.000000 eV
 dipol+quadrupol energy correction           -0.053689 eV
 added-field ion interaction         72.727558 eV  (added to PSCEN)


 Broyden mixing:
  rms(total) = 0.10075E-01    rms(broyden)= 0.10074E-01
  rms(prec ) = 0.16627E-01
  weight for this iteration     100.00

 eigenvalues of (default mixing * dielectric matrix)
  average eigenvalue GAMMA=   1.0979
  2.7595  2.7595  1.7515  0.9486  0.9486  0.7239  0.7239  0.2309  0.4481  0.3736
  0.4088

 Free energy of the ion-electron system (eV)
  ---------------------------------------------------
  alpha Z        PSCENC =       790.74646490
  Ewald energy   TEWEN  =    164226.44806453
  -Hartree energ DENC   =   -211585.82498522
  -exchange      EXHF   =         0.00000000
  -V(xc)+E(xc)   XCENC  =      1581.42856148
  PAW double counting   =     46418.50853562   -50259.61111281
  entropy T*S    EENTRO =        -0.00426544
  eigenvalues    EBANDS =     -1317.68765460
  atomic energy  EATOM  =     50037.92390023
  Solvation  Ediel_sol  =         0.00000000
  ---------------------------------------------------
  free energy    TOTEN  =      -108.07249131 eV

  energy without entropy =     -108.06822587  energy(sigma->0) =     -108.07142495


--------------------------------------------------------------------------------------------------------




--------------------------------------- Iteration      1(  24)  ---------------------------------------


    POTLOK:  cpu time    0.0824: real time    0.0846
    SETDIJ:  cpu time    0.0057: real time    0.0057
    EDDIAG:  cpu time    2.6171: real time    2.6357
  RMM-DIIS:  cpu time    7.3175: real time    7.3680
    ORTHCH:  cpu time    0.6654: real time    0.6689
       DOS:  cpu time    0.0011: real time    0.0011
    CHARGE:  cpu time    0.6468: real time    0.6514
    MIXING:  cpu time    0.0052: real time    0.0053
    --------------------------------------------
      LOOP:  cpu time   11.3413: real time   11.4206

 eigenvalue-minimisations  :  4029
 total energy-change (2. order) : 0.1390858E-02  (-0.1701443E-03)
 number of electron     395.9998001 magnetization 
 augmentation part      253.5977477 magnetization 

 DIPCOR: dipole corrections for dipol
 direction  3 min pos   150,
 dipolmoment           0.000000      0.000000      0.871884 electrons x Angstroem
 Tr[quadrupol]     -4132.988690

 energy correction for charged system         0.000000 eV
 dipol+quadrupol energy correction           -0.052103 eV
 added-field ion interaction         67.248595 eV  (added to PSCEN)


 Broyden mixing:
  rms(total) = 0.36952E-02    rms(broyden)= 0.36950E-02
  rms(prec ) = 0.53296E-02
  weight for this iteration     100.00

 eigenvalues of (default mixing * dielectric matrix)
  average eigenvalue GAMMA=   1.1004
  2.9284  2.9284  1.8205  0.9706  0.9706  0.2309  0.7335  0.7335  0.6595  0.3731
  0.4429  0.4122

 Free energy of the ion-electron system (eV)
  ---------------------------------------------------
  alpha Z        PSCENC =       785.26908848
  Ewald energy   TEWEN  =    164226.44806453
  -Hartree energ DENC   =   -211598.66080706
  -exchange      EXHF   =         0.00000000
  -V(xc)+E(xc)   XCENC  =      1581.48484817
  PAW double counting   =     46411.58941851   -50252.78874436
  entropy T*S    EENTRO =        -0.00633892
  eigenvalues    EBANDS =     -1299.33053002
  atomic energy  EATOM  =     50037.92390023
  Solvation  Ediel_sol  =         0.00000000
  ---------------------------------------------------
  free energy    TOTEN  =      -108.07110045 eV

  energy without entropy =     -108.06476153  energy(sigma->0) =     -108.06951572


--------------------------------------------------------------------------------------------------------




--------------------------------------- Iteration      1(  25)  ---------------------------------------


    POTLOK:  cpu time    0.0839: real time    0.0860
    SETDIJ:  cpu time    0.0057: real time    0.0057
    EDDIAG:  cpu time    2.6127: real time    2.6298
  RMM-DIIS:  cpu time    7.4336: real time    7.4836
    ORTHCH:  cpu time    0.6656: real time    0.6695
       DOS:  cpu time    0.0011: real time    0.0011
    CHARGE:  cpu time    0.6634: real time    0.6684
    MIXING:  cpu time    0.0066: real time    0.0066
    --------------------------------------------
      LOOP:  cpu time   11.4725: real time   11.5505

 eigenvalue-minimisations  :  4076
 total energy-change (2. order) :-0.6266775E-03  (-0.2406666E-04)
 number of electron     395.9998001 magnetization 
 augmentation part      253.5962386 magnetization 

 DIPCOR: dipole corrections for dipol
 direction  3 min pos   150,
 dipolmoment           0.000000      0.000000      0.866398 electrons x Angstroem
 Tr[quadrupol]     -4133.033167

 energy correction for charged system         0.000000 eV
 dipol+quadrupol energy correction           -0.051449 eV
 added-field ion interaction         67.528857 eV  (added to PSCEN)


 Broyden mixing:
  rms(total) = 0.30488E-02    rms(broyden)= 0.30487E-02
  rms(prec ) = 0.43857E-02
  weight for this iteration     100.00

 eigenvalues of (default mixing * dielectric matrix)
  average eigenvalue GAMMA=   1.1595
  3.2673  3.2673  1.6620  1.6620  0.9215  0.9215  0.2309  0.7281  0.7281  0.3732
  0.4088  0.4370  0.4657

 Free energy of the ion-electron system (eV)
  ---------------------------------------------------
  alpha Z        PSCENC =       785.55000421
  Ewald energy   TEWEN  =    164226.44806453
  -Hartree energ DENC   =   -211600.95782335
  -exchange      EXHF   =         0.00000000
  -V(xc)+E(xc)   XCENC  =      1581.49165214
  PAW double counting   =     46407.29531079   -50248.42672909
  entropy T*S    EENTRO =        -0.00655425
  eigenvalues    EBANDS =     -1297.38955234
  atomic energy  EATOM  =     50037.92390023
  Solvation  Ediel_sol  =         0.00000000
  ---------------------------------------------------
  free energy    TOTEN  =      -108.07172713 eV

  energy without entropy =     -108.06517289  energy(sigma->0) =     -108.07008857


--------------------------------------------------------------------------------------------------------




--------------------------------------- Iteration      1(  26)  ---------------------------------------


    POTLOK:  cpu time    0.0840: real time    0.0853
    SETDIJ:  cpu time    0.0056: real time    0.0056
    EDDIAG:  cpu time    2.6169: real time    2.6343
  RMM-DIIS:  cpu time    7.0156: real time    7.0619
    ORTHCH:  cpu time    0.6627: real time    0.6661
       DOS:  cpu time    0.0010: real time    0.0010
    CHARGE:  cpu time    0.6498: real time    0.6545
    MIXING:  cpu time    0.0055: real time    0.0055
    --------------------------------------------
      LOOP:  cpu time   11.0412: real time   11.1143

 eigenvalue-minimisations  :  3820
 total energy-change (2. order) :-0.9084090E-03  (-0.1335679E-04)
 number of electron     395.9998001 magnetization 
 augmentation part      253.5981166 magnetization 

 DIPCOR: dipole corrections for dipol
 direction  3 min pos   151,
 dipolmoment           0.000000      0.000000      0.858234 electrons x Angstroem
 Tr[quadrupol]     -4133.220619

 energy correction for charged system         0.000000 eV
 dipol+quadrupol energy correction           -0.050484 eV
 added-field ion interaction         61.667321 eV  (added to PSCEN)


 Broyden mixing:
  rms(total) = 0.34573E-02    rms(broyden)= 0.34573E-02
  rms(prec ) = 0.54342E-02
  weight for this iteration     100.00

 eigenvalues of (default mixing * dielectric matrix)
  average eigenvalue GAMMA=   1.2994
  4.9893  2.9901  2.3284  1.7120  1.0634  0.8976  0.8976  0.2309  0.7127  0.7127
  0.3734  0.4081  0.4377  0.4377

 Free energy of the ion-electron system (eV)
  ---------------------------------------------------
  alpha Z        PSCENC =       779.68943367
  Ewald energy   TEWEN  =    164226.44806453
  -Hartree energ DENC   =   -211602.79815429
  -exchange      EXHF   =         0.00000000
  -V(xc)+E(xc)   XCENC  =      1581.48997172
  PAW double counting   =     46404.69634290   -50245.78335433
  entropy T*S    EENTRO =        -0.00667143
  eigenvalues    EBANDS =     -1289.73216854
  atomic energy  EATOM  =     50037.92390023
  Solvation  Ediel_sol  =         0.00000000
  ---------------------------------------------------
  free energy    TOTEN  =      -108.07263554 eV

  energy without entropy =     -108.06596411  energy(sigma->0) =     -108.07096768


--------------------------------------------------------------------------------------------------------




--------------------------------------- Iteration      1(  27)  ---------------------------------------


    POTLOK:  cpu time    0.0835: real time    0.0845
    SETDIJ:  cpu time    0.0057: real time    0.0057
    EDDIAG:  cpu time    2.6085: real time    2.6255
  RMM-DIIS:  cpu time    6.3269: real time    6.3690
    ORTHCH:  cpu time    0.6625: real time    0.6659
       DOS:  cpu time    0.0010: real time    0.0010
    CHARGE:  cpu time    0.6663: real time    0.6711
    MIXING:  cpu time    0.0065: real time    0.0066
    --------------------------------------------
      LOOP:  cpu time   10.3610: real time   10.4292

 eigenvalue-minimisations  :  3498
 total energy-change (2. order) :-0.1005777E-02  (-0.1525528E-04)
 number of electron     395.9998001 magnetization 
 augmentation part      253.5997315 magnetization 

 DIPCOR: dipole corrections for dipol
 direction  3 min pos   152,
 dipolmoment           0.000000      0.000000      0.854049 electrons x Angstroem
 Tr[quadrupol]     -4133.428371

 energy correction for charged system         0.000000 eV
 dipol+quadrupol energy correction           -0.049993 eV
 added-field ion interaction         55.562986 eV  (added to PSCEN)


 Broyden mixing:
  rms(total) = 0.20561E-02    rms(broyden)= 0.20561E-02
  rms(prec ) = 0.24780E-02
  weight for this iteration     100.00

 eigenvalues of (default mixing * dielectric matrix)
  average eigenvalue GAMMA=   1.2790
  5.2231  2.9923  2.4686  1.6775  1.0693  0.9006  0.9006  0.2309  0.7273  0.7273
  0.5988  0.3734  0.4084  0.4430  0.4430

 Free energy of the ion-electron system (eV)
  ---------------------------------------------------
  alpha Z        PSCENC =       773.58558891
  Ewald energy   TEWEN  =    164226.44806453
  -Hartree energ DENC   =   -211605.35053049
  -exchange      EXHF   =         0.00000000
  -V(xc)+E(xc)   XCENC  =      1581.48123855
  PAW double counting   =     46406.36535889   -50247.59415979
  entropy T*S    EENTRO =        -0.00676679
  eigenvalues    EBANDS =     -1280.92633536
  atomic energy  EATOM  =     50037.92390023
  Solvation  Ediel_sol  =         0.00000000
  ---------------------------------------------------
  free energy    TOTEN  =      -108.07364132 eV

  energy without entropy =     -108.06687453  energy(sigma->0) =     -108.07194962


--------------------------------------------------------------------------------------------------------




--------------------------------------- Iteration      1(  28)  ---------------------------------------


    POTLOK:  cpu time    0.0823: real time    0.0838
    SETDIJ:  cpu time    0.0056: real time    0.0056
    EDDIAG:  cpu time    2.6107: real time    2.6279
  RMM-DIIS:  cpu time    4.9074: real time    4.9382
    ORTHCH:  cpu time    0.6662: real time    0.6700
       DOS:  cpu time    0.0011: real time    0.0011
    CHARGE:  cpu time    0.6593: real time    0.6640
    MIXING:  cpu time    0.0063: real time    0.0063
    --------------------------------------------
      LOOP:  cpu time    8.9389: real time    8.9970

 eigenvalue-minimisations  :  2506
 total energy-change (2. order) :-0.1969829E-03  (-0.2464509E-05)
 number of electron     395.9998001 magnetization 
 augmentation part      253.5983545 magnetization 

 DIPCOR: dipole corrections for dipol
 direction  3 min pos   153,
 dipolmoment           0.000000      0.000000      0.853321 electrons x Angstroem
 Tr[quadrupol]     -4133.590988

 energy correction for charged system         0.000000 eV
 dipol+quadrupol energy correction           -0.049908 eV
 added-field ion interaction         49.291474 eV  (added to PSCEN)


 Broyden mixing:
  rms(total) = 0.12170E-02    rms(broyden)= 0.12170E-02
  rms(prec ) = 0.14605E-02
  weight for this iteration     100.00

 eigenvalues of (default mixing * dielectric matrix)
  average eigenvalue GAMMA=   1.3045
  5.1084  3.2867  2.5694  1.5933  1.5933  1.1955  0.8939  0.8939  0.7104  0.7104
  0.2309  0.3733  0.4442  0.4442  0.4124  0.4124

 Free energy of the ion-electron system (eV)
  ---------------------------------------------------
  alpha Z        PSCENC =       767.31416270
  Ewald energy   TEWEN  =    164226.44806453
  -Hartree energ DENC   =   -211605.90643797
  -exchange      EXHF   =         0.00000000
  -V(xc)+E(xc)   XCENC  =      1581.48267953
  PAW double counting   =     46407.10725314   -50248.36960633
  entropy T*S    EENTRO =        -0.00675599
  eigenvalues    EBANDS =     -1274.06709814
  atomic energy  EATOM  =     50037.92390023
  Solvation  Ediel_sol  =         0.00000000
  ---------------------------------------------------
  free energy    TOTEN  =      -108.07383830 eV

  energy without entropy =     -108.06708231  energy(sigma->0) =     -108.07214930


--------------------------------------------------------------------------------------------------------




--------------------------------------- Iteration      1(  29)  ---------------------------------------


    POTLOK:  cpu time    0.0843: real time    0.0856
    SETDIJ:  cpu time    0.0055: real time    0.0055
    EDDIAG:  cpu time    2.6246: real time    2.6418
  RMM-DIIS:  cpu time    4.8375: real time    4.8694
    ORTHCH:  cpu time    0.6654: real time    0.6694
       DOS:  cpu time    0.0011: real time    0.0011
    CHARGE:  cpu time    0.6739: real time    0.6789
    MIXING:  cpu time    0.0058: real time    0.0058
    --------------------------------------------
      LOOP:  cpu time    8.8982: real time    8.9575

 eigenvalue-minimisations  :  2526
 total energy-change (2. order) :-0.2072032E-03  (-0.3031745E-05)
 number of electron     395.9998001 magnetization 
 augmentation part      253.5955113 magnetization 

 DIPCOR: dipole corrections for dipol
 direction  3 min pos   157,
 dipolmoment           0.000000      0.000000      0.853499 electrons x Angstroem
 Tr[quadrupol]     -4134.204356

 energy correction for charged system         0.000000 eV
 dipol+quadrupol energy correction           -0.049929 eV
 added-field ion interaction         24.081015 eV  (added to PSCEN)


 Broyden mixing:
  rms(total) = 0.70996E-03    rms(broyden)= 0.70992E-03
  rms(prec ) = 0.11327E-02
  weight for this iteration     100.00

 eigenvalues of (default mixing * dielectric matrix)
  average eigenvalue GAMMA=   1.4042
  5.8449  3.6067  2.5020  2.5020  1.4216  1.4216  1.0484  0.9020  0.9020  0.7136
  0.7136  0.2309  0.3735  0.4424  0.4424  0.4087  0.3947

 Free energy of the ion-electron system (eV)
  ---------------------------------------------------
  alpha Z        PSCENC =       742.10368266
  Ewald energy   TEWEN  =    164226.44806453
  -Hartree energ DENC   =   -211606.55450129
  -exchange      EXHF   =         0.00000000
  -V(xc)+E(xc)   XCENC  =      1581.48779690
  PAW double counting   =     46407.86030535   -50249.13355619
  entropy T*S    EENTRO =        -0.00672977
  eigenvalues    EBANDS =     -1248.20300791
  atomic energy  EATOM  =     50037.92390023
  Solvation  Ediel_sol  =         0.00000000
  ---------------------------------------------------
  free energy    TOTEN  =      -108.07404550 eV

  energy without entropy =     -108.06731573  energy(sigma->0) =     -108.07236306


--------------------------------------------------------------------------------------------------------




--------------------------------------- Iteration      1(  30)  ---------------------------------------


    POTLOK:  cpu time    0.0878: real time    0.0890
    SETDIJ:  cpu time    0.0057: real time    0.0058
    EDDIAG:  cpu time    2.6102: real time    2.6273
  RMM-DIIS:  cpu time    4.5738: real time    4.6035
    ORTHCH:  cpu time    0.6663: real time    0.6699
       DOS:  cpu time    0.0010: real time    0.0010
    CHARGE:  cpu time    0.6692: real time    0.6740
    MIXING:  cpu time    0.0063: real time    0.0063
    --------------------------------------------
      LOOP:  cpu time    8.6204: real time    8.6770

 eigenvalue-minimisations  :  2346
 total energy-change (2. order) :-0.8029243E-04  (-0.1779171E-05)
 number of electron     395.9998001 magnetization 
 augmentation part      253.5949618 magnetization 

 DIPCOR: dipole corrections for dipol
 direction  3 min pos   152,
 dipolmoment           0.000000      0.000000      0.854233 electrons x Angstroem
 Tr[quadrupol]     -4133.490161

 energy correction for charged system         0.000000 eV
 dipol+quadrupol energy correction           -0.050015 eV
 added-field ion interaction         55.555307 eV  (added to PSCEN)


 Broyden mixing:
  rms(total) = 0.45189E-03    rms(broyden)= 0.45187E-03
  rms(prec ) = 0.74724E-03
  weight for this iteration     100.00

 eigenvalues of (default mixing * dielectric matrix)
  average eigenvalue GAMMA=   1.3802
  6.0249  3.6583  2.5485  2.5485  1.4033  1.4033  1.1158  0.8949  0.8949  0.2309
  0.7165  0.7165  0.6379  0.4418  0.4418  0.3735  0.4084  0.3845

 Free energy of the ion-electron system (eV)
  ---------------------------------------------------
  alpha Z        PSCENC =       773.57788834
  Ewald energy   TEWEN  =    164226.44806453
  -Hartree energ DENC   =   -211607.27848389
  -exchange      EXHF   =         0.00000000
  -V(xc)+E(xc)   XCENC  =      1581.49275950
  PAW double counting   =     46407.83156661   -50249.03888277
  entropy T*S    EENTRO =        -0.00671978
  eigenvalues    EBANDS =     -1279.02421856
  atomic energy  EATOM  =     50037.92390023
  Solvation  Ediel_sol  =         0.00000000
  ---------------------------------------------------
  free energy    TOTEN  =      -108.07412580 eV

  energy without entropy =     -108.06740601  energy(sigma->0) =     -108.07244585


--------------------------------------------------------------------------------------------------------




--------------------------------------- Iteration      1(  31)  ---------------------------------------


    POTLOK:  cpu time    0.0872: real time    0.0894
    SETDIJ:  cpu time    0.0058: real time    0.0058
    EDDIAG:  cpu time    2.6181: real time    2.6349
  RMM-DIIS:  cpu time    4.4528: real time    4.4822
    ORTHCH:  cpu time    0.6641: real time    0.6678
       DOS:  cpu time    0.0011: real time    0.0011
    CHARGE:  cpu time    0.6495: real time    0.6541
    MIXING:  cpu time    0.0081: real time    0.0081
    --------------------------------------------
      LOOP:  cpu time    8.4865: real time    8.5433

 eigenvalue-minimisations  :  2321
 total energy-change (2. order) :-0.1081827E-04  (-0.5354572E-06)
 number of electron     395.9998001 magnetization 
 augmentation part      253.5945390 magnetization 

 DIPCOR: dipole corrections for dipol
 direction  3 min pos   150,
 dipolmoment           0.000000      0.000000      0.854234 electrons x Angstroem
 Tr[quadrupol]     -4133.200992

 energy correction for charged system         0.000000 eV
 dipol+quadrupol energy correction           -0.050015 eV
 added-field ion interaction         68.150269 eV  (added to PSCEN)


 Broyden mixing:
  rms(total) = 0.51659E-03    rms(broyden)= 0.51659E-03
  rms(prec ) = 0.64983E-03
  weight for this iteration     100.00

 eigenvalues of (default mixing * dielectric matrix)
  average eigenvalue GAMMA=   1.3759
  6.1576  3.7093  2.5753  2.5753  1.6719  1.2600  1.2600  0.9807  0.9162  0.9162
  0.7156  0.7156  0.2309  0.4428  0.4428  0.4096  0.4213  0.3734  0.3679

 Free energy of the ion-electron system (eV)
  ---------------------------------------------------
  alpha Z        PSCENC =       786.17285064
  Ewald energy   TEWEN  =    164226.44806453
  -Hartree energ DENC   =   -211607.44390777
  -exchange      EXHF   =         0.00000000
  -V(xc)+E(xc)   XCENC  =      1581.49284881
  PAW double counting   =     46407.90125264   -50249.11686333
  entropy T*S    EENTRO =        -0.00673912
  eigenvalues    EBANDS =     -1291.44554324
  atomic energy  EATOM  =     50037.92390023
  Solvation  Ediel_sol  =         0.00000000
  ---------------------------------------------------
  free energy    TOTEN  =      -108.07413662 eV

  energy without entropy =     -108.06739750  energy(sigma->0) =     -108.07245184


--------------------------------------------------------------------------------------------------------




--------------------------------------- Iteration      1(  32)  ---------------------------------------


    POTLOK:  cpu time    0.0872: real time    0.0882
    SETDIJ:  cpu time    0.0058: real time    0.0058
    EDDIAG:  cpu time    2.6048: real time    2.6219
  RMM-DIIS:  cpu time    4.6189: real time    4.6492
    ORTHCH:  cpu time    0.6657: real time    0.6692
       DOS:  cpu time    0.0010: real time    0.0010
    CHARGE:  cpu time    0.6505: real time    0.6550
    MIXING:  cpu time    0.0073: real time    0.0074
    --------------------------------------------
      LOOP:  cpu time    8.6413: real time    8.6979

 eigenvalue-minimisations  :  2361
 total energy-change (2. order) :-0.2307755E-04  (-0.2739836E-06)
 number of electron     395.9998001 magnetization 
 augmentation part      253.5947555 magnetization 

 DIPCOR: dipole corrections for dipol
 direction  3 min pos   149,
 dipolmoment           0.000000      0.000000      0.855366 electrons x Angstroem
 Tr[quadrupol]     -4133.061249

 energy correction for charged system         0.000000 eV
 dipol+quadrupol energy correction           -0.050147 eV
 added-field ion interaction         74.384607 eV  (added to PSCEN)


 Broyden mixing:
  rms(total) = 0.59713E-03    rms(broyden)= 0.59713E-03
  rms(prec ) = 0.83466E-03
  weight for this iteration     100.00

 eigenvalues of (default mixing * dielectric matrix)
  average eigenvalue GAMMA=   1.4265
  6.4694  3.8135  2.8583  2.3301  2.3301  1.4321  1.4321  1.1249  0.9008  0.9008
  0.8708  0.7170  0.7170  0.2309  0.4422  0.4422  0.3735  0.4085  0.3950  0.3403

 Free energy of the ion-electron system (eV)
  ---------------------------------------------------
  alpha Z        PSCENC =       792.40705587
  Ewald energy   TEWEN  =    164226.44806453
  -Hartree energ DENC   =   -211607.58518469
  -exchange      EXHF   =         0.00000000
  -V(xc)+E(xc)   XCENC  =      1581.49186614
  PAW double counting   =     46407.96126349   -50249.18970825
  entropy T*S    EENTRO =        -0.00674200
  eigenvalues    EBANDS =     -1297.52467502
  atomic energy  EATOM  =     50037.92390023
  Solvation  Ediel_sol  =         0.00000000
  ---------------------------------------------------
  free energy    TOTEN  =      -108.07415969 eV

  energy without entropy =     -108.06741770  energy(sigma->0) =     -108.07247419


--------------------------------------------------------------------------------------------------------




--------------------------------------- Iteration      1(  33)  ---------------------------------------


    POTLOK:  cpu time    0.0885: real time    0.0893
    SETDIJ:  cpu time    0.0057: real time    0.0057
    EDDIAG:  cpu time    2.5965: real time    2.6135
  RMM-DIIS:  cpu time    4.4486: real time    4.4781
    ORTHCH:  cpu time    0.6645: real time    0.6681
       DOS:  cpu time    0.0010: real time    0.0010
    CHARGE:  cpu time    0.6332: real time    0.6379
    MIXING:  cpu time    0.0057: real time    0.0064
    --------------------------------------------
      LOOP:  cpu time    8.4437: real time    8.5001

 eigenvalue-minimisations  :  2301
 total energy-change (2. order) :-0.5558203E-04  (-0.3963705E-06)
 number of electron     395.9998001 magnetization 
 augmentation part      253.5957753 magnetization 

 DIPCOR: dipole corrections for dipol
 direction  3 min pos   150,
 dipolmoment           0.000000      0.000000      0.858401 electrons x Angstroem
 Tr[quadrupol]     -4133.223766

 energy correction for charged system         0.000000 eV
 dipol+quadrupol energy correction           -0.050504 eV
 added-field ion interaction         67.937375 eV  (added to PSCEN)


 Broyden mixing:
  rms(total) = 0.54837E-03    rms(broyden)= 0.54835E-03
  rms(prec ) = 0.13699E-02
  weight for this iteration     100.00

 eigenvalues of (default mixing * dielectric matrix)
  average eigenvalue GAMMA=   1.4713
  6.3466  4.6451  2.8908  2.8908  2.4901  1.4658  1.2628  1.2628  0.9063  0.9063
  0.9402  0.8231  0.7233  0.7233  0.2309  0.4423  0.4423  0.3734  0.4084  0.3923
  0.3296

 Free energy of the ion-electron system (eV)
  ---------------------------------------------------
  alpha Z        PSCENC =       785.95946785
  Ewald energy   TEWEN  =    164226.44806453
  -Hartree energ DENC   =   -211607.70015271
  -exchange      EXHF   =         0.00000000
  -V(xc)+E(xc)   XCENC  =      1581.48972949
  PAW double counting   =     46407.80729531   -50249.04060415
  entropy T*S    EENTRO =        -0.00671457
  eigenvalues    EBANDS =     -1290.95520125
  atomic energy  EATOM  =     50037.92390023
  Solvation  Ediel_sol  =         0.00000000
  ---------------------------------------------------
  free energy    TOTEN  =      -108.07421527 eV

  energy without entropy =     -108.06750071  energy(sigma->0) =     -108.07253663


--------------------------------------------------------------------------------------------------------




--------------------------------------- Iteration      1(  34)  ---------------------------------------


    POTLOK:  cpu time    0.0845: real time    0.0854
    SETDIJ:  cpu time    0.0057: real time    0.0057
    EDDIAG:  cpu time    2.6106: real time    2.6277
  RMM-DIIS:  cpu time    4.3753: real time    4.4041
    ORTHCH:  cpu time    0.6690: real time    0.6728
       DOS:  cpu time    0.0010: real time    0.0010
    CHARGE:  cpu time    0.6514: real time    0.6563
    MIXING:  cpu time    0.0080: real time    0.0080
    --------------------------------------------
      LOOP:  cpu time    8.4055: real time    8.4610

 eigenvalue-minimisations  :  2246
 total energy-change (2. order) :-0.3328268E-04  (-0.1947675E-06)
 number of electron     395.9998001 magnetization 
 augmentation part      253.5954464 magnetization 

 DIPCOR: dipole corrections for dipol
 direction  3 min pos   151,
 dipolmoment           0.000000      0.000000      0.859495 electrons x Angstroem
 Tr[quadrupol]     -4133.382435

 energy correction for charged system         0.000000 eV
 dipol+quadrupol energy correction           -0.050633 eV
 added-field ion interaction         61.608862 eV  (added to PSCEN)


 Broyden mixing:
  rms(total) = 0.36777E-03    rms(broyden)= 0.36777E-03
  rms(prec ) = 0.64604E-03
  weight for this iteration     100.00

 eigenvalues of (default mixing * dielectric matrix)
  average eigenvalue GAMMA=   1.4830
  6.0735  5.5412  3.0217  3.0217  2.4125  1.5687  1.3290  1.3290  1.0172  0.9764
  0.9055  0.9055  0.7167  0.7167  0.2309  0.4781  0.4420  0.4420  0.3734  0.4086
  0.3896  0.3253

 Free energy of the ion-electron system (eV)
  ---------------------------------------------------
  alpha Z        PSCENC =       779.63082555
  Ewald energy   TEWEN  =    164226.44806453
  -Hartree energ DENC   =   -211607.77336057
  -exchange      EXHF   =         0.00000000
  -V(xc)+E(xc)   XCENC  =      1581.48989416
  PAW double counting   =     46407.69726991   -50248.93404071
  entropy T*S    EENTRO =        -0.00673605
  eigenvalues    EBANDS =     -1284.55006560
  atomic energy  EATOM  =     50037.92390023
  Solvation  Ediel_sol  =         0.00000000
  ---------------------------------------------------
  free energy    TOTEN  =      -108.07424856 eV

  energy without entropy =     -108.06751251  energy(sigma->0) =     -108.07256455


--------------------------------------------------------------------------------------------------------




--------------------------------------- Iteration      1(  35)  ---------------------------------------


    POTLOK:  cpu time    0.0851: real time    0.0860
    SETDIJ:  cpu time    0.0056: real time    0.0056
    EDDIAG:  cpu time    2.6076: real time    2.6244
  RMM-DIIS:  cpu time    4.3158: real time    4.3437
    ORTHCH:  cpu time    0.6642: real time    0.6677
       DOS:  cpu time    0.0010: real time    0.0010
    CHARGE:  cpu time    0.6622: real time    0.6670
    MIXING:  cpu time    0.0086: real time    0.0087
    --------------------------------------------
      LOOP:  cpu time    8.3501: real time    8.4040

 eigenvalue-minimisations  :  2157
 total energy-change (2. order) :-0.1424855E-04  (-0.8551311E-07)
 number of electron     395.9998001 magnetization 
 augmentation part      253.5955243 magnetization 

 DIPCOR: dipole corrections for dipol
 direction  3 min pos   152,
 dipolmoment           0.000000      0.000000      0.859864 electrons x Angstroem
 Tr[quadrupol]     -4133.535753

 energy correction for charged system         0.000000 eV
 dipol+quadrupol energy correction           -0.050676 eV
 added-field ion interaction         55.320810 eV  (added to PSCEN)


 Broyden mixing:
  rms(total) = 0.13991E-03    rms(broyden)= 0.13989E-03
  rms(prec ) = 0.17343E-03
  weight for this iteration     100.00

 eigenvalues of (default mixing * dielectric matrix)
  average eigenvalue GAMMA=   1.5371
  6.4588  6.4588  3.1249  3.1249  2.1433  2.1433  1.3563  1.3563  1.2908  0.9636
  0.9070  0.9070  0.7273  0.7273  0.7106  0.2309  0.4423  0.4423  0.3734  0.4084
  0.3927  0.3451  0.3171

 Free energy of the ion-electron system (eV)
  ---------------------------------------------------
  alpha Z        PSCENC =       773.34272993
  Ewald energy   TEWEN  =    164226.44806453
  -Hartree energ DENC   =   -211607.81362503
  -exchange      EXHF   =         0.00000000
  -V(xc)+E(xc)   XCENC  =      1581.49026126
  PAW double counting   =     46407.70262735   -50248.93268891
  entropy T*S    EENTRO =        -0.00674615
  eigenvalues    EBANDS =     -1278.22878602
  atomic energy  EATOM  =     50037.92390023
  Solvation  Ediel_sol  =         0.00000000
  ---------------------------------------------------
  free energy    TOTEN  =      -108.07426281 eV

  energy without entropy =     -108.06751666  energy(sigma->0) =     -108.07257627


--------------------------------------------------------------------------------------------------------




--------------------------------------- Iteration      1(  36)  ---------------------------------------


    POTLOK:  cpu time    0.0845: real time    0.0859
    SETDIJ:  cpu time    0.0057: real time    0.0057
    EDDIAG:  cpu time    2.6006: real time    2.6176
  RMM-DIIS:  cpu time    4.5114: real time    4.5401
    ORTHCH:  cpu time    0.6650: real time    0.6685
       DOS:  cpu time    0.0011: real time    0.0011
    CHARGE:  cpu time    0.6560: real time    0.6606
    MIXING:  cpu time    0.0081: real time    0.0082
    --------------------------------------------
      LOOP:  cpu time    8.5323: real time    8.5877

 eigenvalue-minimisations  :  2205
 total energy-change (2. order) :-0.1270757E-04  (-0.6112425E-07)
 number of electron     395.9998001 magnetization 
 augmentation part      253.5956575 magnetization 

 DIPCOR: dipole corrections for dipol
 direction  3 min pos   153,
 dipolmoment           0.000000      0.000000      0.860439 electrons x Angstroem
 Tr[quadrupol]     -4133.689349

 energy correction for charged system         0.000000 eV
 dipol+quadrupol energy correction           -0.050744 eV
 added-field ion interaction         49.028634 eV  (added to PSCEN)


 Broyden mixing:
  rms(total) = 0.11883E-03    rms(broyden)= 0.11882E-03
  rms(prec ) = 0.21243E-03
  weight for this iteration     100.00

 eigenvalues of (default mixing * dielectric matrix)
  average eigenvalue GAMMA=   1.6219
  7.6696  6.9827  3.2577  3.2577  2.3012  2.2662  1.7222  1.2851  1.2851  0.9942
  0.9942  0.9083  0.9083  0.7251  0.7251  0.7133  0.2309  0.4422  0.4422  0.3734
  0.4085  0.3925  0.3361  0.3035

 Free energy of the ion-electron system (eV)
  ---------------------------------------------------
  alpha Z        PSCENC =       767.05048674
  Ewald energy   TEWEN  =    164226.44806453
  -Hartree energ DENC   =   -211607.85831214
  -exchange      EXHF   =         0.00000000
  -V(xc)+E(xc)   XCENC  =      1581.49038977
  PAW double counting   =     46407.72113838   -50248.94406682
  entropy T*S    EENTRO =        -0.00675217
  eigenvalues    EBANDS =     -1271.89912402
  atomic energy  EATOM  =     50037.92390023
  Solvation  Ediel_sol  =         0.00000000
  ---------------------------------------------------
  free energy    TOTEN  =      -108.07427551 eV

  energy without entropy =     -108.06752334  energy(sigma->0) =     -108.07258747


--------------------------------------------------------------------------------------------------------




--------------------------------------- Iteration      1(  37)  ---------------------------------------


    POTLOK:  cpu time    0.0855: real time    0.0867
    SETDIJ:  cpu time    0.0060: real time    0.0060
    EDDIAG:  cpu time    2.6175: real time    2.6350
  RMM-DIIS:  cpu time    4.1873: real time    4.2136
    ORTHCH:  cpu time    0.6617: real time    0.6652
       DOS:  cpu time    0.0010: real time    0.0010
    CHARGE:  cpu time    0.6502: real time    0.6550
    MIXING:  cpu time    0.0077: real time    0.0077
    --------------------------------------------
      LOOP:  cpu time    8.2170: real time    8.2702

 eigenvalue-minimisations  :  1934
 total energy-change (2. order) :-0.1286709E-04  (-0.4672612E-07)
 number of electron     395.9998001 magnetization 
 augmentation part      253.5956447 magnetization 

 DIPCOR: dipole corrections for dipol
 direction  3 min pos   155,
 dipolmoment           0.000000      0.000000      0.861133 electrons x Angstroem
 Tr[quadrupol]     -4133.990702

 energy correction for charged system         0.000000 eV
 dipol+quadrupol energy correction           -0.050826 eV
 added-field ion interaction         36.473150 eV  (added to PSCEN)


 Broyden mixing:
  rms(total) = 0.72837E-04    rms(broyden)= 0.72833E-04
  rms(prec ) = 0.12791E-03
  weight for this iteration     100.00

 eigenvalues of (default mixing * dielectric matrix)
  average eigenvalue GAMMA=   1.6395
  8.5982  6.9864  3.3722  3.3722  2.4664  2.2789  1.6328  1.2837  1.2837  1.0116
  1.0116  0.9070  0.9070  0.8765  0.7189  0.7189  0.2309  0.6400  0.4422  0.4422
  0.3734  0.4085  0.3923  0.3338  0.2974

 Free energy of the ion-electron system (eV)
  ---------------------------------------------------
  alpha Z        PSCENC =       754.49492033
  Ewald energy   TEWEN  =    164226.44806453
  -Hartree energ DENC   =   -211607.86694595
  -exchange      EXHF   =         0.00000000
  -V(xc)+E(xc)   XCENC  =      1581.48987621
  PAW double counting   =     46407.75209702   -50248.98333049
  entropy T*S    EENTRO =        -0.00675118
  eigenvalues    EBANDS =     -1259.32611907
  atomic energy  EATOM  =     50037.92390023
  Solvation  Ediel_sol  =         0.00000000
  ---------------------------------------------------
  free energy    TOTEN  =      -108.07428838 eV

  energy without entropy =     -108.06753720  energy(sigma->0) =     -108.07260059


--------------------------------------------------------------------------------------------------------




--------------------------------------- Iteration      1(  38)  ---------------------------------------


    POTLOK:  cpu time    0.0824: real time    0.0837
    SETDIJ:  cpu time    0.0058: real time    0.0058
    EDDIAG:  cpu time    2.6100: real time    2.6269
  RMM-DIIS:  cpu time    3.4201: real time    3.4414
    ORTHCH:  cpu time    0.6630: real time    0.6665
       DOS:  cpu time    0.0011: real time    0.0011
    CHARGE:  cpu time    0.6712: real time    0.6762
    MIXING:  cpu time    0.0095: real time    0.0095
    --------------------------------------------
      LOOP:  cpu time    7.4630: real time    7.5110

 eigenvalue-minimisations  :   941
 total energy-change (2. order) :-0.1074696E-04  (-0.5906926E-07)
 number of electron     395.9998001 magnetization 
 augmentation part      253.5957111 magnetization 

 DIPCOR: dipole corrections for dipol
 direction  3 min pos   158,
 dipolmoment           0.000000      0.000000      0.861254 electrons x Angstroem
 Tr[quadrupol]     -4134.440790

 energy correction for charged system         0.000000 eV
 dipol+quadrupol energy correction           -0.050840 eV
 added-field ion interaction         17.676748 eV  (added to PSCEN)


 Broyden mixing:
  rms(total) = 0.29181E-04    rms(broyden)= 0.29180E-04
  rms(prec ) = 0.58390E-04
  weight for this iteration     100.00

 eigenvalues of (default mixing * dielectric matrix)
  average eigenvalue GAMMA=   1.6483
  9.0574  6.9953  3.5402  3.3904  2.6077  2.4372  1.4590  1.4590  1.2680  1.2680
  0.9708  0.9708  0.9090  0.9090  0.7253  0.7253  0.7088  0.2309  0.5300  0.4422
  0.4422  0.3734  0.4085  0.3924  0.3347  0.2993

 Free energy of the ion-electron system (eV)
  ---------------------------------------------------
  alpha Z        PSCENC =       735.69850452
  Ewald energy   TEWEN  =    164226.44806453
  -Hartree energ DENC   =   -211607.87209524
  -exchange      EXHF   =         0.00000000
  -V(xc)+E(xc)   XCENC  =      1581.48970332
  PAW double counting   =     46407.77364211   -50249.00403210
  entropy T*S    EENTRO =        -0.00675217
  eigenvalues    EBANDS =     -1240.52523432
  atomic energy  EATOM  =     50037.92390023
  Solvation  Ediel_sol  =         0.00000000
  ---------------------------------------------------
  free energy    TOTEN  =      -108.07429913 eV

  energy without entropy =     -108.06754696  energy(sigma->0) =     -108.07261109


--------------------------------------------------------------------------------------------------------




--------------------------------------- Iteration      1(  39)  ---------------------------------------


    POTLOK:  cpu time    0.0850: real time    0.0861
    SETDIJ:  cpu time    0.0057: real time    0.0057
    EDDIAG:  cpu time    2.6248: real time    2.6418
  RMM-DIIS:  cpu time    3.6225: real time    3.6447
    ORTHCH:  cpu time    0.6658: real time    0.6693
       DOS:  cpu time    0.0011: real time    0.0011
    CHARGE:  cpu time    0.6690: real time    0.6740
    MIXING:  cpu time    0.0089: real time    0.0090
    --------------------------------------------
      LOOP:  cpu time    7.6828: real time    7.7316

 eigenvalue-minimisations  :  1162
 total energy-change (2. order) :-0.1115067E-04  (-0.4655313E-07)
 number of electron     395.9998001 magnetization 
 augmentation part      253.5957879 magnetization 

 DIPCOR: dipole corrections for dipol
 direction  3 min pos   161,
 dipolmoment           0.000000      0.000000      0.861295 electrons x Angstroem
 Tr[quadrupol]     -4134.890445

 energy correction for charged system         0.000000 eV
 dipol+quadrupol energy correction           -0.050845 eV
 added-field ion interaction         -1.116310 eV  (added to PSCEN)


 Broyden mixing:
  rms(total) = 0.25830E-04    rms(broyden)= 0.25829E-04
  rms(prec ) = 0.36857E-04
  weight for this iteration     100.00

 eigenvalues of (default mixing * dielectric matrix)
  average eigenvalue GAMMA=   1.6517
  8.8569  7.1208  3.5801  3.5801  2.6463  2.1948  2.1190  1.5833  1.2741  1.2741
  0.9788  0.9788  0.9639  0.9081  0.9081  0.7259  0.7259  0.7179  0.2309  0.5353
  0.4422  0.4422  0.3734  0.4085  0.3924  0.3344  0.2987

 Free energy of the ion-electron system (eV)
  ---------------------------------------------------
  alpha Z        PSCENC =       716.90544183
  Ewald energy   TEWEN  =    164226.44806453
  -Hartree energ DENC   =   -211607.87643071
  -exchange      EXHF   =         0.00000000
  -V(xc)+E(xc)   XCENC  =      1581.48962501
  PAW double counting   =     46407.78349995   -50249.01237629
  entropy T*S    EENTRO =        -0.00675198
  eigenvalues    EBANDS =     -1221.72928285
  atomic energy  EATOM  =     50037.92390023
  Solvation  Ediel_sol  =         0.00000000
  ---------------------------------------------------
  free energy    TOTEN  =      -108.07431028 eV

  energy without entropy =     -108.06755830  energy(sigma->0) =     -108.07262228


--------------------------------------------------------------------------------------------------------




--------------------------------------- Iteration      1(  40)  ---------------------------------------


    POTLOK:  cpu time    0.0859: real time    0.0871
    SETDIJ:  cpu time    0.0058: real time    0.0058
    EDDIAG:  cpu time    2.6060: real time    2.6229
  RMM-DIIS:  cpu time    3.5103: real time    3.5311
    ORTHCH:  cpu time    0.6651: real time    0.6688
       DOS:  cpu time    0.0010: real time    0.0010
    --------------------------------------------
      LOOP:  cpu time    6.8741: real time    6.9168

 eigenvalue-minimisations  :   933
 total energy-change (2. order) :-0.6573733E-05  (-0.1660571E-07)
 number of electron     395.9998001 magnetization 
 augmentation part      253.5957879 magnetization 

 DIPCOR: dipole corrections for dipol
 direction  3 min pos   163,
 dipolmoment           0.000000      0.000000      0.861330 electrons x Angstroem
 Tr[quadrupol]     -4135.190161

 energy correction for charged system         0.000000 eV
 dipol+quadrupol energy correction           -0.050849 eV
 added-field ion interaction        -13.644293 eV  (added to PSCEN)


 Free energy of the ion-electron system (eV)
  ---------------------------------------------------
  alpha Z        PSCENC =       704.37745454
  Ewald energy   TEWEN  =    164226.44806453
  -Hartree energ DENC   =   -211607.88334937
  -exchange      EXHF   =         0.00000000
  -V(xc)+E(xc)   XCENC  =      1581.48965472
  PAW double counting   =     46407.78012809   -50249.00947089
  entropy T*S    EENTRO =        -0.00675211
  eigenvalues    EBANDS =     -1209.19394660
  atomic energy  EATOM  =     50037.92390023
  Solvation  Ediel_sol  =         0.00000000
  ---------------------------------------------------
  free energy    TOTEN  =      -108.07431685 eV

  energy without entropy =     -108.06756474  energy(sigma->0) =     -108.07262882


--------------------------------------------------------------------------------------------------------




 average (electrostatic) potential at core
  the test charge radii are     0.9430
  (the norm of the test charge is              1.0000)
       1 -71.3732       2 -71.3735       3 -71.3740       4 -71.3724       5 -71.3717
       6 -71.3728       7 -71.3730       8 -71.3734       9 -71.3740      10 -71.7380
      11 -71.7470      12 -71.7358      13 -71.7578      14 -71.7750      15 -71.7639
      16 -71.7578      17 -71.7748      18 -71.7635      19 -71.7368      20 -71.7302
      21 -71.7307      22 -71.7221      23 -71.7170      24 -71.7227      25 -71.7364
      26 -71.7305      27 -71.7319      28 -71.3795      29 -71.3852      30 -71.3796
      31 -71.3534      32 -71.3261      33 -71.3280      34 -71.3553      35 -71.3231
      36 -71.3328
 
 
 
 E-fermi :  -0.3506     XC(G=0):  -4.9857     alpha+bet : -4.3587


 k-point     1 :       0.1250    0.1250    0.0000
  band No.  band energies     occupation 
      1      -8.7623      2.00000
      2      -7.2159      2.00000
      3      -6.9379      2.00000
      4      -6.9317      2.00000
      5      -5.9537      2.00000
      6      -5.9476      2.00000
      7      -5.7011      2.00000
      8      -5.6943      2.00000
      9      -5.5005      2.00000
     10      -5.3216      2.00000
     11      -5.1882      2.00000
     12      -5.1816      2.00000
     13      -4.9694      2.00000
     14      -4.9672      2.00000
     15      -4.8689      2.00000
     16      -4.7874      2.00000
     17      -4.5694      2.00000
     18      -4.5433      2.00000
     19      -4.5335      2.00000
     20      -4.5132      2.00000
     21      -4.5059      2.00000
     22      -4.4597      2.00000
     23      -4.3896      2.00000
     24      -4.3306      2.00000
     25      -4.3291      2.00000
     26      -4.2677      2.00000
     27      -4.2542      2.00000
     28      -4.2501      2.00000
     29      -4.2154      2.00000
     30      -4.2103      2.00000
     31      -4.2041      2.00000
     32      -4.1936      2.00000
     33      -4.1865      2.00000
     34      -4.1190      2.00000
     35      -4.1133      2.00000
     36      -4.1102      2.00000
     37      -4.1042      2.00000
     38      -4.0950      2.00000
     39      -4.0150      2.00000
     40      -4.0111      2.00000
     41      -3.9631      2.00000
     42      -3.9470      2.00000
     43      -3.9224      2.00000
     44      -3.9159      2.00000
     45      -3.8289      2.00000
     46      -3.7182      2.00000
     47      -3.7148      2.00000
     48      -3.7043      2.00000
     49      -3.6984      2.00000
     50      -3.6658      2.00000
     51      -3.6387      2.00000
     52      -3.6177      2.00000
     53      -3.6112      2.00000
     54      -3.6091      2.00000
     55      -3.5669      2.00000
     56      -3.5003      2.00000
     57      -3.4987      2.00000
     58      -3.4792      2.00000
     59      -3.4389      2.00000
     60      -3.4352      2.00000
     61      -3.4312      2.00000
     62      -3.4081      2.00000
     63      -3.3868      2.00000
     64      -3.3811      2.00000
     65      -3.3779      2.00000
     66      -3.3626      2.00000
     67      -3.3551      2.00000
     68      -3.3501      2.00000
     69      -3.2990      2.00000
     70      -3.2961      2.00000
     71      -3.2909      2.00000
     72      -3.1943      2.00000
     73      -3.1849      2.00000
     74      -3.1741      2.00000
     75      -3.1655      2.00000
     76      -3.1385      2.00000
     77      -3.1252      2.00000
     78      -3.1199      2.00000
     79      -3.0853      2.00000
     80      -3.0803      2.00000
     81      -3.0712      2.00000
     82      -3.0632      2.00000
     83      -3.0579      2.00000
     84      -3.0528      2.00000
     85      -3.0359      2.00000
     86      -3.0327      2.00000
     87      -3.0276      2.00000
     88      -3.0227      2.00000
     89      -3.0193      2.00000
     90      -3.0091      2.00000
     91      -3.0002      2.00000
     92      -2.9911      2.00000
     93      -2.9824      2.00000
     94      -2.9691      2.00000
     95      -2.9530      2.00000
     96      -2.9491      2.00000
     97      -2.9035      2.00000
     98      -2.8995      2.00000
     99      -2.8536      2.00000
    100      -2.8010      2.00000
    101      -2.7989      2.00000
    102      -2.7679      2.00000
    103      -2.7620      2.00000
    104      -2.6568      2.00000
    105      -2.6462      2.00000
    106      -2.6399      2.00000
    107      -2.6370      2.00000
    108      -2.6075      2.00000
    109      -2.6011      2.00000
    110      -2.5895      2.00000
    111      -2.5843      2.00000
    112      -2.5698      2.00000
    113      -2.5434      2.00000
    114      -2.5421      2.00000
    115      -2.5380      2.00000
    116      -2.5335      2.00000
    117      -2.5112      2.00000
    118      -2.5063      2.00000
    119      -2.5027      2.00000
    120      -2.4991      2.00000
    121      -2.4854      2.00000
    122      -2.4809      2.00000
    123      -2.4593      2.00000
    124      -2.4390      2.00000
    125      -2.4332      2.00000
    126      -2.4303      2.00000
    127      -2.4263      2.00000
    128      -2.4124      2.00000
    129      -2.4112      2.00000
    130      -2.4058      2.00000
    131      -2.4035      2.00000
    132      -2.3993      2.00000
    133      -2.3952      2.00000
    134      -2.3935      2.00000
    135      -2.3795      2.00000
    136      -2.3766      2.00000
    137      -2.3320      2.00000
    138      -2.3150      2.00000
    139      -2.2819      2.00000
    140      -2.2569      2.00000
    141      -2.2483      2.00000
    142      -2.2427      2.00000
    143      -2.2257      2.00000
    144      -2.2144      2.00000
    145      -2.2110      2.00000
    146      -2.2101      2.00000
    147      -2.2050      2.00000
    148      -2.2029      2.00000
    149      -2.2006      2.00000
    150      -2.1924      2.00000
    151      -2.1646      2.00000
    152      -2.1628      2.00000
    153      -2.1150      2.00000
    154      -2.0835      2.00000
    155      -2.0815      2.00000
    156      -2.0727      2.00000
    157      -2.0710      2.00000
    158      -2.0613      2.00000
    159      -2.0576      2.00000
    160      -2.0472      2.00000
    161      -2.0408      2.00000
    162      -2.0388      2.00000
    163      -2.0371      2.00000
    164      -2.0357      2.00000
    165      -2.0344      2.00000
    166      -2.0257      2.00000
    167      -2.0231      2.00000
    168      -2.0207      2.00000
    169      -1.9969      2.00000
    170      -1.9953      2.00000
    171      -1.9591      2.00000
    172      -1.9564      2.00000
    173      -1.9548      2.00000
    174      -1.9502      2.00000
    175      -1.9472      2.00000
    176      -1.9098      2.00000
    177      -1.8747      2.00000
    178      -1.8733      2.00000
    179      -1.8716      2.00000
    180      -1.8683      2.00000
    181      -1.8625      2.00000
    182      -1.8575      2.00000
    183      -1.8559      2.00000
    184      -1.8415      2.00000
    185      -1.8213      2.00000
    186      -1.8128      2.00000
    187      -1.8112      2.00000
    188      -1.8098      2.00000
    189      -1.8016      2.00000
    190      -1.7981      2.00000
    191      -1.7931      2.00000
    192      -1.7488      2.00000
    193      -1.3284      2.00000
    194      -1.3251      2.00000
    195      -1.0695      1.99998
    196      -1.0681      1.99998
    197      -0.9901      1.99977
    198      -0.7146      1.99343
    199      -0.6040      2.06281
    200      -0.3765      1.27071
    201      -0.3724      1.22917
    202      -0.1035     -0.06892
    203      -0.0977     -0.06332
    204       0.7575      0.00000
    205       0.8355      0.00000
    206       0.9438      0.00000
    207       1.3241      0.00000
    208       1.3304      0.00000
    209       1.7673      0.00000
    210       1.7690      0.00000
    211       1.8675      0.00000
    212       1.8793      0.00000
    213       2.8818      0.00000
    214       3.0833      0.00000
    215       3.1449      0.00000
    216       3.1493      0.00000
    217       3.2823      0.00000
    218       3.4711      0.00000
    219       3.4764      0.00000
    220       3.6272      0.00000
    221       3.6692      0.00000
    222       3.6746      0.00000
    223       3.8016      0.00000
    224       3.8042      0.00000
    225       4.1087      0.00000
    226       4.5196      0.00000
    227       4.5211      0.00000
    228       4.7381      0.00000
    229       4.7520      0.00000
    230       4.7524      0.00000
    231       4.9048      0.00000
    232       4.9066      0.00000
    233       5.1479      0.00000
    234       5.1527      0.00000
    235       5.3198      0.00000
    236       5.3226      0.00000
    237       5.4737      0.00000
    238       5.4907      0.00000
    239       5.5676      0.00000
    240       5.7598      0.00000

 k-point     2 :       0.3750    0.1250    0.0000
  band No.  band energies     occupation 
      1      -8.4377      2.00000
      2      -7.8096      2.00000
      3      -6.9161      2.00000
      4      -6.6494      2.00000
      5      -6.3642      2.00000
      6      -6.1286      2.00000
      7      -5.7110      2.00000
      8      -5.4440      2.00000
      9      -5.3198      2.00000
     10      -5.1769      2.00000
     11      -5.0822      2.00000
     12      -5.0115      2.00000
     13      -4.9846      2.00000
     14      -4.9742      2.00000
     15      -4.7314      2.00000
     16      -4.7042      2.00000
     17      -4.6981      2.00000
     18      -4.6413      2.00000
     19      -4.6338      2.00000
     20      -4.5949      2.00000
     21      -4.4813      2.00000
     22      -4.4375      2.00000
     23      -4.4235      2.00000
     24      -4.3927      2.00000
     25      -4.3508      2.00000
     26      -4.3272      2.00000
     27      -4.3080      2.00000
     28      -4.2957      2.00000
     29      -4.2895      2.00000
     30      -4.2614      2.00000
     31      -4.2370      2.00000
     32      -4.2270      2.00000
     33      -4.1459      2.00000
     34      -4.1363      2.00000
     35      -4.0589      2.00000
     36      -4.0474      2.00000
     37      -4.0235      2.00000
     38      -4.0194      2.00000
     39      -3.9593      2.00000
     40      -3.9526      2.00000
     41      -3.9335      2.00000
     42      -3.9088      2.00000
     43      -3.8909      2.00000
     44      -3.8343      2.00000
     45      -3.8303      2.00000
     46      -3.8204      2.00000
     47      -3.7689      2.00000
     48      -3.7291      2.00000
     49      -3.7233      2.00000
     50      -3.6994      2.00000
     51      -3.6966      2.00000
     52      -3.6358      2.00000
     53      -3.6005      2.00000
     54      -3.5791      2.00000
     55      -3.5652      2.00000
     56      -3.5519      2.00000
     57      -3.5360      2.00000
     58      -3.5231      2.00000
     59      -3.4872      2.00000
     60      -3.4774      2.00000
     61      -3.4577      2.00000
     62      -3.4534      2.00000
     63      -3.4395      2.00000
     64      -3.4387      2.00000
     65      -3.4164      2.00000
     66      -3.4099      2.00000
     67      -3.3907      2.00000
     68      -3.3250      2.00000
     69      -3.2845      2.00000
     70      -3.2580      2.00000
     71      -3.2408      2.00000
     72      -3.2385      2.00000
     73      -3.2233      2.00000
     74      -3.2064      2.00000
     75      -3.1621      2.00000
     76      -3.1380      2.00000
     77      -3.1157      2.00000
     78      -3.1125      2.00000
     79      -3.1033      2.00000
     80      -3.0979      2.00000
     81      -3.0911      2.00000
     82      -3.0858      2.00000
     83      -3.0796      2.00000
     84      -3.0683      2.00000
     85      -3.0598      2.00000
     86      -3.0421      2.00000
     87      -3.0326      2.00000
     88      -3.0271      2.00000
     89      -3.0049      2.00000
     90      -2.9976      2.00000
     91      -2.9910      2.00000
     92      -2.9790      2.00000
     93      -2.9636      2.00000
     94      -2.9302      2.00000
     95      -2.9216      2.00000
     96      -2.8929      2.00000
     97      -2.8721      2.00000
     98      -2.8645      2.00000
     99      -2.8090      2.00000
    100      -2.8000      2.00000
    101      -2.7599      2.00000
    102      -2.7558      2.00000
    103      -2.7446      2.00000
    104      -2.7423      2.00000
    105      -2.7345      2.00000
    106      -2.7331      2.00000
    107      -2.7138      2.00000
    108      -2.7082      2.00000
    109      -2.6984      2.00000
    110      -2.6777      2.00000
    111      -2.6624      2.00000
    112      -2.6504      2.00000
    113      -2.6260      2.00000
    114      -2.6214      2.00000
    115      -2.6003      2.00000
    116      -2.5945      2.00000
    117      -2.5911      2.00000
    118      -2.5875      2.00000
    119      -2.5689      2.00000
    120      -2.5565      2.00000
    121      -2.5415      2.00000
    122      -2.5370      2.00000
    123      -2.5120      2.00000
    124      -2.5079      2.00000
    125      -2.4986      2.00000
    126      -2.4418      2.00000
    127      -2.4157      2.00000
    128      -2.3933      2.00000
    129      -2.3854      2.00000
    130      -2.3847      2.00000
    131      -2.3676      2.00000
    132      -2.3620      2.00000
    133      -2.3410      2.00000
    134      -2.3293      2.00000
    135      -2.3249      2.00000
    136      -2.3222      2.00000
    137      -2.3121      2.00000
    138      -2.3063      2.00000
    139      -2.2905      2.00000
    140      -2.2815      2.00000
    141      -2.2734      2.00000
    142      -2.2726      2.00000
    143      -2.2629      2.00000
    144      -2.2595      2.00000
    145      -2.2423      2.00000
    146      -2.2341      2.00000
    147      -2.2162      2.00000
    148      -2.2091      2.00000
    149      -2.1785      2.00000
    150      -2.1735      2.00000
    151      -2.1679      2.00000
    152      -2.1364      2.00000
    153      -2.1189      2.00000
    154      -2.1139      2.00000
    155      -2.1041      2.00000
    156      -2.1007      2.00000
    157      -2.0668      2.00000
    158      -2.0608      2.00000
    159      -2.0415      2.00000
    160      -2.0364      2.00000
    161      -2.0353      2.00000
    162      -2.0271      2.00000
    163      -2.0192      2.00000
    164      -2.0161      2.00000
    165      -2.0111      2.00000
    166      -1.9986      2.00000
    167      -1.9784      2.00000
    168      -1.9770      2.00000
    169      -1.9756      2.00000
    170      -1.9739      2.00000
    171      -1.9637      2.00000
    172      -1.9539      2.00000
    173      -1.9504      2.00000
    174      -1.9449      2.00000
    175      -1.9305      2.00000
    176      -1.9106      2.00000
    177      -1.8914      2.00000
    178      -1.8836      2.00000
    179      -1.8705      2.00000
    180      -1.8666      2.00000
    181      -1.8578      2.00000
    182      -1.8272      2.00000
    183      -1.8172      2.00000
    184      -1.8138      2.00000
    185      -1.7986      2.00000
    186      -1.7755      2.00000
    187      -1.7220      2.00000
    188      -1.6853      2.00000
    189      -1.6587      2.00000
    190      -1.6004      2.00000
    191      -1.5602      2.00000
    192      -1.4938      2.00000
    193      -1.4242      2.00000
    194      -1.0712      1.99998
    195      -0.9810      1.99972
    196      -0.8474      1.99565
    197      -0.6757      2.00645
    198      -0.2506      0.12287
    199      -0.0694     -0.03697
    200      -0.0595     -0.02870
    201       0.0195      0.00758
    202       0.1211      0.00612
    203       0.2637      0.00043
    204       0.4604      0.00000
    205       0.6951      0.00000
    206       0.8941      0.00000
    207       1.2706      0.00000
    208       1.4110      0.00000
    209       1.6855      0.00000
    210       1.6967      0.00000
    211       2.1853      0.00000
    212       2.2795      0.00000
    213       2.3249      0.00000
    214       2.3722      0.00000
    215       2.3835      0.00000
    216       2.7098      0.00000
    217       2.8301      0.00000
    218       2.9119      0.00000
    219       3.2050      0.00000
    220       3.3627      0.00000
    221       3.3678      0.00000
    222       3.7729      0.00000
    223       3.8040      0.00000
    224       3.8445      0.00000
    225       3.8503      0.00000
    226       4.0136      0.00000
    227       4.0942      0.00000
    228       4.4150      0.00000
    229       4.5508      0.00000
    230       4.6430      0.00000
    231       4.6575      0.00000
    232       4.9574      0.00000
    233       5.0283      0.00000
    234       5.0660      0.00000
    235       5.0676      0.00000
    236       5.1800      0.00000
    237       5.1965      0.00000
    238       5.4329      0.00000
    239       5.5793      0.00000
    240       5.7949      0.00000

 k-point     3 :      -0.3750    0.1250    0.0000
  band No.  band energies     occupation 
      1      -8.4377      2.00000
      2      -7.8096      2.00000
      3      -6.9161      2.00000
      4      -6.6494      2.00000
      5      -6.3642      2.00000
      6      -6.1286      2.00000
      7      -5.7110      2.00000
      8      -5.4440      2.00000
      9      -5.3198      2.00000
     10      -5.1769      2.00000
     11      -5.0822      2.00000
     12      -5.0114      2.00000
     13      -4.9850      2.00000
     14      -4.9739      2.00000
     15      -4.7314      2.00000
     16      -4.7040      2.00000
     17      -4.6982      2.00000
     18      -4.6412      2.00000
     19      -4.6335      2.00000
     20      -4.5954      2.00000
     21      -4.4813      2.00000
     22      -4.4374      2.00000
     23      -4.4235      2.00000
     24      -4.3927      2.00000
     25      -4.3508      2.00000
     26      -4.3274      2.00000
     27      -4.3079      2.00000
     28      -4.2957      2.00000
     29      -4.2891      2.00000
     30      -4.2617      2.00000
     31      -4.2372      2.00000
     32      -4.2266      2.00000
     33      -4.1464      2.00000
     34      -4.1358      2.00000
     35      -4.0589      2.00000
     36      -4.0476      2.00000
     37      -4.0234      2.00000
     38      -4.0192      2.00000
     39      -3.9597      2.00000
     40      -3.9529      2.00000
     41      -3.9333      2.00000
     42      -3.9082      2.00000
     43      -3.8911      2.00000
     44      -3.8343      2.00000
     45      -3.8302      2.00000
     46      -3.8203      2.00000
     47      -3.7690      2.00000
     48      -3.7294      2.00000
     49      -3.7234      2.00000
     50      -3.6991      2.00000
     51      -3.6964      2.00000
     52      -3.6361      2.00000
     53      -3.6010      2.00000
     54      -3.5789      2.00000
     55      -3.5651      2.00000
     56      -3.5519      2.00000
     57      -3.5358      2.00000
     58      -3.5229      2.00000
     59      -3.4874      2.00000
     60      -3.4775      2.00000
     61      -3.4575      2.00000
     62      -3.4528      2.00000
     63      -3.4399      2.00000
     64      -3.4388      2.00000
     65      -3.4164      2.00000
     66      -3.4100      2.00000
     67      -3.3905      2.00000
     68      -3.3247      2.00000
     69      -3.2845      2.00000
     70      -3.2578      2.00000
     71      -3.2409      2.00000
     72      -3.2385      2.00000
     73      -3.2233      2.00000
     74      -3.2063      2.00000
     75      -3.1625      2.00000
     76      -3.1379      2.00000
     77      -3.1162      2.00000
     78      -3.1122      2.00000
     79      -3.1021      2.00000
     80      -3.0982      2.00000
     81      -3.0920      2.00000
     82      -3.0865      2.00000
     83      -3.0808      2.00000
     84      -3.0670      2.00000
     85      -3.0592      2.00000
     86      -3.0416      2.00000
     87      -3.0322      2.00000
     88      -3.0275      2.00000
     89      -3.0055      2.00000
     90      -2.9971      2.00000
     91      -2.9905      2.00000
     92      -2.9791      2.00000
     93      -2.9639      2.00000
     94      -2.9305      2.00000
     95      -2.9218      2.00000
     96      -2.8928      2.00000
     97      -2.8722      2.00000
     98      -2.8641      2.00000
     99      -2.8091      2.00000
    100      -2.8002      2.00000
    101      -2.7603      2.00000
    102      -2.7559      2.00000
    103      -2.7433      2.00000
    104      -2.7423      2.00000
    105      -2.7345      2.00000
    106      -2.7339      2.00000
    107      -2.7143      2.00000
    108      -2.7066      2.00000
    109      -2.6981      2.00000
    110      -2.6780      2.00000
    111      -2.6632      2.00000
    112      -2.6503      2.00000
    113      -2.6266      2.00000
    114      -2.6216      2.00000
    115      -2.6000      2.00000
    116      -2.5947      2.00000
    117      -2.5915      2.00000
    118      -2.5866      2.00000
    119      -2.5695      2.00000
    120      -2.5564      2.00000
    121      -2.5417      2.00000
    122      -2.5362      2.00000
    123      -2.5123      2.00000
    124      -2.5074      2.00000
    125      -2.4986      2.00000
    126      -2.4419      2.00000
    127      -2.4158      2.00000
    128      -2.3935      2.00000
    129      -2.3854      2.00000
    130      -2.3848      2.00000
    131      -2.3669      2.00000
    132      -2.3614      2.00000
    133      -2.3418      2.00000
    134      -2.3283      2.00000
    135      -2.3241      2.00000
    136      -2.3219      2.00000
    137      -2.3125      2.00000
    138      -2.3071      2.00000
    139      -2.2920      2.00000
    140      -2.2817      2.00000
    141      -2.2729      2.00000
    142      -2.2718      2.00000
    143      -2.2635      2.00000
    144      -2.2601      2.00000
    145      -2.2423      2.00000
    146      -2.2336      2.00000
    147      -2.2161      2.00000
    148      -2.2094      2.00000
    149      -2.1780      2.00000
    150      -2.1731      2.00000
    151      -2.1680      2.00000
    152      -2.1368      2.00000
    153      -2.1193      2.00000
    154      -2.1137      2.00000
    155      -2.1039      2.00000
    156      -2.1006      2.00000
    157      -2.0671      2.00000
    158      -2.0607      2.00000
    159      -2.0415      2.00000
    160      -2.0364      2.00000
    161      -2.0355      2.00000
    162      -2.0272      2.00000
    163      -2.0194      2.00000
    164      -2.0160      2.00000
    165      -2.0108      2.00000
    166      -1.9991      2.00000
    167      -1.9781      2.00000
    168      -1.9771      2.00000
    169      -1.9754      2.00000
    170      -1.9738      2.00000
    171      -1.9637      2.00000
    172      -1.9538      2.00000
    173      -1.9503      2.00000
    174      -1.9453      2.00000
    175      -1.9303      2.00000
    176      -1.9106      2.00000
    177      -1.8915      2.00000
    178      -1.8839      2.00000
    179      -1.8702      2.00000
    180      -1.8666      2.00000
    181      -1.8581      2.00000
    182      -1.8272      2.00000
    183      -1.8170      2.00000
    184      -1.8141      2.00000
    185      -1.7988      2.00000
    186      -1.7745      2.00000
    187      -1.7225      2.00000
    188      -1.6852      2.00000
    189      -1.6586      2.00000
    190      -1.6003      2.00000
    191      -1.5602      2.00000
    192      -1.4938      2.00000
    193      -1.4242      2.00000
    194      -1.0712      1.99998
    195      -0.9810      1.99971
    196      -0.8474      1.99565
    197      -0.6758      2.00642
    198      -0.2506      0.12268
    199      -0.0689     -0.03653
    200      -0.0598     -0.02889
    201       0.0192      0.00753
    202       0.1211      0.00612
    203       0.2637      0.00043
    204       0.4603      0.00000
    205       0.6952      0.00000
    206       0.8941      0.00000
    207       1.2702      0.00000
    208       1.4111      0.00000
    209       1.6860      0.00000
    210       1.6967      0.00000
    211       2.1853      0.00000
    212       2.2797      0.00000
    213       2.3251      0.00000
    214       2.3724      0.00000
    215       2.3830      0.00000
    216       2.7116      0.00000
    217       2.8275      0.00000
    218       2.9120      0.00000
    219       3.2050      0.00000
    220       3.3618      0.00000
    221       3.3688      0.00000
    222       3.7731      0.00000
    223       3.8041      0.00000
    224       3.8444      0.00000
    225       3.8502      0.00000
    226       4.0143      0.00000
    227       4.0939      0.00000
    228       4.4151      0.00000
    229       4.5507      0.00000
    230       4.6426      0.00000
    231       4.6573      0.00000
    232       4.9570      0.00000
    233       5.0282      0.00000
    234       5.0660      0.00000
    235       5.0676      0.00000
    236       5.1803      0.00000
    237       5.1968      0.00000
    238       5.4329      0.00000
    239       5.5801      0.00000
    240       5.7840      0.00000

 k-point     4 :      -0.1250    0.1250    0.0000
  band No.  band energies     occupation 
      1      -8.7623      2.00000
      2      -7.2159      2.00000
      3      -6.9372      2.00000
      4      -6.9323      2.00000
      5      -5.9532      2.00000
      6      -5.9481      2.00000
      7      -5.7021      2.00000
      8      -5.6934      2.00000
      9      -5.5004      2.00000
     10      -5.3216      2.00000
     11      -5.1888      2.00000
     12      -5.1809      2.00000
     13      -4.9691      2.00000
     14      -4.9675      2.00000
     15      -4.8689      2.00000
     16      -4.7874      2.00000
     17      -4.5694      2.00000
     18      -4.5433      2.00000
     19      -4.5334      2.00000
     20      -4.5131      2.00000
     21      -4.5060      2.00000
     22      -4.4598      2.00000
     23      -4.3896      2.00000
     24      -4.3308      2.00000
     25      -4.3291      2.00000
     26      -4.2677      2.00000
     27      -4.2541      2.00000
     28      -4.2504      2.00000
     29      -4.2148      2.00000
     30      -4.2095      2.00000
     31      -4.2041      2.00000
     32      -4.1938      2.00000
     33      -4.1872      2.00000
     34      -4.1197      2.00000
     35      -4.1135      2.00000
     36      -4.1099      2.00000
     37      -4.1039      2.00000
     38      -4.0951      2.00000
     39      -4.0150      2.00000
     40      -4.0113      2.00000
     41      -3.9628      2.00000
     42      -3.9470      2.00000
     43      -3.9224      2.00000
     44      -3.9160      2.00000
     45      -3.8288      2.00000
     46      -3.7178      2.00000
     47      -3.7153      2.00000
     48      -3.7047      2.00000
     49      -3.6980      2.00000
     50      -3.6657      2.00000
     51      -3.6384      2.00000
     52      -3.6185      2.00000
     53      -3.6113      2.00000
     54      -3.6090      2.00000
     55      -3.5669      2.00000
     56      -3.5005      2.00000
     57      -3.4982      2.00000
     58      -3.4791      2.00000
     59      -3.4393      2.00000
     60      -3.4347      2.00000
     61      -3.4319      2.00000
     62      -3.4076      2.00000
     63      -3.3870      2.00000
     64      -3.3811      2.00000
     65      -3.3782      2.00000
     66      -3.3624      2.00000
     67      -3.3549      2.00000
     68      -3.3498      2.00000
     69      -3.2989      2.00000
     70      -3.2962      2.00000
     71      -3.2908      2.00000
     72      -3.1942      2.00000
     73      -3.1848      2.00000
     74      -3.1730      2.00000
     75      -3.1667      2.00000
     76      -3.1387      2.00000
     77      -3.1256      2.00000
     78      -3.1195      2.00000
     79      -3.0855      2.00000
     80      -3.0791      2.00000
     81      -3.0727      2.00000
     82      -3.0618      2.00000
     83      -3.0590      2.00000
     84      -3.0524      2.00000
     85      -3.0362      2.00000
     86      -3.0323      2.00000
     87      -3.0268      2.00000
     88      -3.0230      2.00000
     89      -3.0203      2.00000
     90      -3.0088      2.00000
     91      -3.0003      2.00000
     92      -2.9917      2.00000
     93      -2.9818      2.00000
     94      -2.9686      2.00000
     95      -2.9530      2.00000
     96      -2.9495      2.00000
     97      -2.9035      2.00000
     98      -2.8999      2.00000
     99      -2.8540      2.00000
    100      -2.8011      2.00000
    101      -2.7985      2.00000
    102      -2.7683      2.00000
    103      -2.7613      2.00000
    104      -2.6571      2.00000
    105      -2.6464      2.00000
    106      -2.6386      2.00000
    107      -2.6375      2.00000
    108      -2.6074      2.00000
    109      -2.6006      2.00000
    110      -2.5894      2.00000
    111      -2.5834      2.00000
    112      -2.5703      2.00000
    113      -2.5435      2.00000
    114      -2.5424      2.00000
    115      -2.5385      2.00000
    116      -2.5337      2.00000
    117      -2.5116      2.00000
    118      -2.5057      2.00000
    119      -2.5023      2.00000
    120      -2.4992      2.00000
    121      -2.4862      2.00000
    122      -2.4806      2.00000
    123      -2.4594      2.00000
    124      -2.4403      2.00000
    125      -2.4330      2.00000
    126      -2.4296      2.00000
    127      -2.4260      2.00000
    128      -2.4124      2.00000
    129      -2.4107      2.00000
    130      -2.4065      2.00000
    131      -2.4031      2.00000
    132      -2.3990      2.00000
    133      -2.3949      2.00000
    134      -2.3929      2.00000
    135      -2.3802      2.00000
    136      -2.3774      2.00000
    137      -2.3318      2.00000
    138      -2.3151      2.00000
    139      -2.2823      2.00000
    140      -2.2573      2.00000
    141      -2.2483      2.00000
    142      -2.2423      2.00000
    143      -2.2246      2.00000
    144      -2.2153      2.00000
    145      -2.2119      2.00000
    146      -2.2096      2.00000
    147      -2.2050      2.00000
    148      -2.2029      2.00000
    149      -2.2008      2.00000
    150      -2.1930      2.00000
    151      -2.1641      2.00000
    152      -2.1625      2.00000
    153      -2.1149      2.00000
    154      -2.0834      2.00000
    155      -2.0817      2.00000
    156      -2.0730      2.00000
    157      -2.0705      2.00000
    158      -2.0614      2.00000
    159      -2.0570      2.00000
    160      -2.0475      2.00000
    161      -2.0404      2.00000
    162      -2.0387      2.00000
    163      -2.0367      2.00000
    164      -2.0358      2.00000
    165      -2.0348      2.00000
    166      -2.0258      2.00000
    167      -2.0232      2.00000
    168      -2.0210      2.00000
    169      -1.9971      2.00000
    170      -1.9952      2.00000
    171      -1.9595      2.00000
    172      -1.9562      2.00000
    173      -1.9555      2.00000
    174      -1.9501      2.00000
    175      -1.9466      2.00000
    176      -1.9097      2.00000
    177      -1.8750      2.00000
    178      -1.8732      2.00000
    179      -1.8709      2.00000
    180      -1.8687      2.00000
    181      -1.8624      2.00000
    182      -1.8575      2.00000
    183      -1.8558      2.00000
    184      -1.8411      2.00000
    185      -1.8214      2.00000
    186      -1.8128      2.00000
    187      -1.8113      2.00000
    188      -1.8100      2.00000
    189      -1.8010      2.00000
    190      -1.7972      2.00000
    191      -1.7944      2.00000
    192      -1.7493      2.00000
    193      -1.3285      2.00000
    194      -1.3249      2.00000
    195      -1.0695      1.99998
    196      -1.0681      1.99998
    197      -0.9902      1.99977
    198      -0.7146      1.99345
    199      -0.6041      2.06272
    200      -0.3767      1.27285
    201      -0.3723      1.22831
    202      -0.1035     -0.06888
    203      -0.0976     -0.06329
    204       0.7574      0.00000
    205       0.8356      0.00000
    206       0.9437      0.00000
    207       1.3242      0.00000
    208       1.3303      0.00000
    209       1.7666      0.00000
    210       1.7694      0.00000
    211       1.8666      0.00000
    212       1.8808      0.00000
    213       2.8818      0.00000
    214       3.0828      0.00000
    215       3.1445      0.00000
    216       3.1501      0.00000
    217       3.2821      0.00000
    218       3.4699      0.00000
    219       3.4776      0.00000
    220       3.6275      0.00000
    221       3.6698      0.00000
    222       3.6737      0.00000
    223       3.8010      0.00000
    224       3.8047      0.00000
    225       4.1086      0.00000
    226       4.5197      0.00000
    227       4.5213      0.00000
    228       4.7381      0.00000
    229       4.7518      0.00000
    230       4.7526      0.00000
    231       4.9049      0.00000
    232       4.9065      0.00000
    233       5.1472      0.00000
    234       5.1535      0.00000
    235       5.3183      0.00000
    236       5.3228      0.00000
    237       5.4711      0.00000
    238       5.4902      0.00000
    239       5.5670      0.00000
    240       5.6759      0.00000

 k-point     5 :       0.1250    0.3750    0.0000
  band No.  band energies     occupation 
      1      -8.4378      2.00000
      2      -7.8097      2.00000
      3      -6.9150      2.00000
      4      -6.6508      2.00000
      5      -6.3621      2.00000
      6      -6.1299      2.00000
      7      -5.7116      2.00000
      8      -5.4444      2.00000
      9      -5.3203      2.00000
     10      -5.1771      2.00000
     11      -5.0823      2.00000
     12      -5.0117      2.00000
     13      -4.9827      2.00000
     14      -4.9752      2.00000
     15      -4.7324      2.00000
     16      -4.7039      2.00000
     17      -4.6976      2.00000
     18      -4.6424      2.00000
     19      -4.6347      2.00000
     20      -4.5937      2.00000
     21      -4.4841      2.00000
     22      -4.4330      2.00000
     23      -4.4232      2.00000
     24      -4.3872      2.00000
     25      -4.3565      2.00000
     26      -4.3191      2.00000
     27      -4.3088      2.00000
     28      -4.3003      2.00000
     29      -4.2870      2.00000
     30      -4.2581      2.00000
     31      -4.2393      2.00000
     32      -4.2336      2.00000
     33      -4.1436      2.00000
     34      -4.1369      2.00000
     35      -4.0606      2.00000
     36      -4.0497      2.00000
     37      -4.0254      2.00000
     38      -4.0169      2.00000
     39      -3.9557      2.00000
     40      -3.9524      2.00000
     41      -3.9350      2.00000
     42      -3.9082      2.00000
     43      -3.8987      2.00000
     44      -3.8332      2.00000
     45      -3.8289      2.00000
     46      -3.8183      2.00000
     47      -3.7649      2.00000
     48      -3.7262      2.00000
     49      -3.7226      2.00000
     50      -3.7040      2.00000
     51      -3.6965      2.00000
     52      -3.6380      2.00000
     53      -3.5945      2.00000
     54      -3.5841      2.00000
     55      -3.5708      2.00000
     56      -3.5471      2.00000
     57      -3.5394      2.00000
     58      -3.5259      2.00000
     59      -3.4793      2.00000
     60      -3.4746      2.00000
     61      -3.4574      2.00000
     62      -3.4524      2.00000
     63      -3.4398      2.00000
     64      -3.4320      2.00000
     65      -3.4212      2.00000
     66      -3.4138      2.00000
     67      -3.3980      2.00000
     68      -3.3240      2.00000
     69      -3.2847      2.00000
     70      -3.2540      2.00000
     71      -3.2452      2.00000
     72      -3.2399      2.00000
     73      -3.2209      2.00000
     74      -3.2091      2.00000
     75      -3.1609      2.00000
     76      -3.1400      2.00000
     77      -3.1143      2.00000
     78      -3.1104      2.00000
     79      -3.1007      2.00000
     80      -3.0965      2.00000
     81      -3.0904      2.00000
     82      -3.0868      2.00000
     83      -3.0777      2.00000
     84      -3.0741      2.00000
     85      -3.0582      2.00000
     86      -3.0454      2.00000
     87      -3.0308      2.00000
     88      -3.0288      2.00000
     89      -3.0046      2.00000
     90      -2.9980      2.00000
     91      -2.9933      2.00000
     92      -2.9715      2.00000
     93      -2.9646      2.00000
     94      -2.9309      2.00000
     95      -2.9236      2.00000
     96      -2.8961      2.00000
     97      -2.8704      2.00000
     98      -2.8674      2.00000
     99      -2.8081      2.00000
    100      -2.7949      2.00000
    101      -2.7608      2.00000
    102      -2.7580      2.00000
    103      -2.7480      2.00000
    104      -2.7405      2.00000
    105      -2.7343      2.00000
    106      -2.7304      2.00000
    107      -2.7133      2.00000
    108      -2.7077      2.00000
    109      -2.6945      2.00000
    110      -2.6784      2.00000
    111      -2.6690      2.00000
    112      -2.6541      2.00000
    113      -2.6229      2.00000
    114      -2.6073      2.00000
    115      -2.6049      2.00000
    116      -2.5985      2.00000
    117      -2.5953      2.00000
    118      -2.5881      2.00000
    119      -2.5637      2.00000
    120      -2.5563      2.00000
    121      -2.5421      2.00000
    122      -2.5236      2.00000
    123      -2.5162      2.00000
    124      -2.5085      2.00000
    125      -2.5009      2.00000
    126      -2.4410      2.00000
    127      -2.4116      2.00000
    128      -2.3953      2.00000
    129      -2.3852      2.00000
    130      -2.3848      2.00000
    131      -2.3698      2.00000
    132      -2.3594      2.00000
    133      -2.3410      2.00000
    134      -2.3308      2.00000
    135      -2.3215      2.00000
    136      -2.3185      2.00000
    137      -2.3126      2.00000
    138      -2.3077      2.00000
    139      -2.2882      2.00000
    140      -2.2813      2.00000
    141      -2.2777      2.00000
    142      -2.2749      2.00000
    143      -2.2609      2.00000
    144      -2.2593      2.00000
    145      -2.2387      2.00000
    146      -2.2352      2.00000
    147      -2.2167      2.00000
    148      -2.2087      2.00000
    149      -2.1803      2.00000
    150      -2.1747      2.00000
    151      -2.1688      2.00000
    152      -2.1359      2.00000
    153      -2.1184      2.00000
    154      -2.1122      2.00000
    155      -2.1036      2.00000
    156      -2.1014      2.00000
    157      -2.0655      2.00000
    158      -2.0601      2.00000
    159      -2.0380      2.00000
    160      -2.0369      2.00000
    161      -2.0355      2.00000
    162      -2.0267      2.00000
    163      -2.0209      2.00000
    164      -2.0170      2.00000
    165      -2.0132      2.00000
    166      -1.9992      2.00000
    167      -1.9804      2.00000
    168      -1.9777      2.00000
    169      -1.9755      2.00000
    170      -1.9744      2.00000
    171      -1.9649      2.00000
    172      -1.9518      2.00000
    173      -1.9496      2.00000
    174      -1.9453      2.00000
    175      -1.9308      2.00000
    176      -1.9110      2.00000
    177      -1.8922      2.00000
    178      -1.8817      2.00000
    179      -1.8715      2.00000
    180      -1.8676      2.00000
    181      -1.8578      2.00000
    182      -1.8265      2.00000
    183      -1.8166      2.00000
    184      -1.8137      2.00000
    185      -1.7982      2.00000
    186      -1.7742      2.00000
    187      -1.7240      2.00000
    188      -1.6858      2.00000
    189      -1.6603      2.00000
    190      -1.6006      2.00000
    191      -1.5606      2.00000
    192      -1.4944      2.00000
    193      -1.4251      2.00000
    194      -1.0723      1.99998
    195      -0.9824      1.99973
    196      -0.8480      1.99568
    197      -0.6761      2.00625
    198      -0.2515      0.12795
    199      -0.0695     -0.03699
    200      -0.0580     -0.02749
    201       0.0181      0.00737
    202       0.1194      0.00625
    203       0.2612      0.00045
    204       0.4624      0.00000
    205       0.6952      0.00000
    206       0.8932      0.00000
    207       1.2701      0.00000
    208       1.4142      0.00000
    209       1.6822      0.00000
    210       1.6992      0.00000
    211       2.1831      0.00000
    212       2.2792      0.00000
    213       2.3379      0.00000
    214       2.3642      0.00000
    215       2.3811      0.00000
    216       2.7126      0.00000
    217       2.8272      0.00000
    218       2.9121      0.00000
    219       3.2050      0.00000
    220       3.3631      0.00000
    221       3.3687      0.00000
    222       3.7719      0.00000
    223       3.8025      0.00000
    224       3.8472      0.00000
    225       3.8501      0.00000
    226       4.0150      0.00000
    227       4.0930      0.00000
    228       4.4150      0.00000
    229       4.5574      0.00000
    230       4.6370      0.00000
    231       4.6594      0.00000
    232       4.9552      0.00000
    233       5.0307      0.00000
    234       5.0659      0.00000
    235       5.0686      0.00000
    236       5.1764      0.00000
    237       5.2002      0.00000
    238       5.4320      0.00000
    239       5.5804      0.00000
    240       5.7819      0.00000

 k-point     6 :       0.3750    0.3750    0.0000
  band No.  band energies     occupation 
      1      -8.1178      2.00000
      2      -7.5044      2.00000
      3      -7.4975      2.00000
      4      -6.9136      2.00000
      5      -6.6199      2.00000
      6      -6.0849      2.00000
      7      -6.0763      2.00000
      8      -5.5761      2.00000
      9      -4.9898      2.00000
     10      -4.9828      2.00000
     11      -4.8481      2.00000
     12      -4.8066      2.00000
     13      -4.7982      2.00000
     14      -4.7542      2.00000
     15      -4.7262      2.00000
     16      -4.7227      2.00000
     17      -4.6964      2.00000
     18      -4.5461      2.00000
     19      -4.5303      2.00000
     20      -4.5259      2.00000
     21      -4.5087      2.00000
     22      -4.5041      2.00000
     23      -4.3839      2.00000
     24      -4.3808      2.00000
     25      -4.3509      2.00000
     26      -4.3442      2.00000
     27      -4.3140      2.00000
     28      -4.3077      2.00000
     29      -4.2964      2.00000
     30      -4.2938      2.00000
     31      -4.2254      2.00000
     32      -4.2048      2.00000
     33      -4.2009      2.00000
     34      -4.1961      2.00000
     35      -4.1506      2.00000
     36      -4.1461      2.00000
     37      -4.1261      2.00000
     38      -4.0681      2.00000
     39      -4.0670      2.00000
     40      -4.0587      2.00000
     41      -4.0142      2.00000
     42      -3.8906      2.00000
     43      -3.8523      2.00000
     44      -3.8141      2.00000
     45      -3.8109      2.00000
     46      -3.7494      2.00000
     47      -3.7389      2.00000
     48      -3.7244      2.00000
     49      -3.7185      2.00000
     50      -3.7114      2.00000
     51      -3.6965      2.00000
     52      -3.6910      2.00000
     53      -3.6566      2.00000
     54      -3.6480      2.00000
     55      -3.6159      2.00000
     56      -3.5307      2.00000
     57      -3.5219      2.00000
     58      -3.5145      2.00000
     59      -3.5067      2.00000
     60      -3.4692      2.00000
     61      -3.4619      2.00000
     62      -3.4261      2.00000
     63      -3.4242      2.00000
     64      -3.3852      2.00000
     65      -3.3769      2.00000
     66      -3.3589      2.00000
     67      -3.3529      2.00000
     68      -3.3385      2.00000
     69      -3.3299      2.00000
     70      -3.2812      2.00000
     71      -3.2724      2.00000
     72      -3.2518      2.00000
     73      -3.2484      2.00000
     74      -3.2382      2.00000
     75      -3.2280      2.00000
     76      -3.1934      2.00000
     77      -3.1591      2.00000
     78      -3.1527      2.00000
     79      -3.1485      2.00000
     80      -3.1440      2.00000
     81      -3.1414      2.00000
     82      -3.1332      2.00000
     83      -3.0756      2.00000
     84      -3.0650      2.00000
     85      -3.0610      2.00000
     86      -3.0434      2.00000
     87      -3.0226      2.00000
     88      -3.0200      2.00000
     89      -2.9922      2.00000
     90      -2.9879      2.00000
     91      -2.9643      2.00000
     92      -2.9595      2.00000
     93      -2.9553      2.00000
     94      -2.9179      2.00000
     95      -2.9156      2.00000
     96      -2.8648      2.00000
     97      -2.8544      2.00000
     98      -2.8507      2.00000
     99      -2.8326      2.00000
    100      -2.8164      2.00000
    101      -2.8107      2.00000
    102      -2.7767      2.00000
    103      -2.7583      2.00000
    104      -2.7510      2.00000
    105      -2.7481      2.00000
    106      -2.7452      2.00000
    107      -2.7363      2.00000
    108      -2.7340      2.00000
    109      -2.7260      2.00000
    110      -2.7162      2.00000
    111      -2.6651      2.00000
    112      -2.6611      2.00000
    113      -2.6589      2.00000
    114      -2.6521      2.00000
    115      -2.6347      2.00000
    116      -2.6269      2.00000
    117      -2.6108      2.00000
    118      -2.6087      2.00000
    119      -2.6034      2.00000
    120      -2.6005      2.00000
    121      -2.5945      2.00000
    122      -2.5905      2.00000
    123      -2.5830      2.00000
    124      -2.5714      2.00000
    125      -2.5690      2.00000
    126      -2.5680      2.00000
    127      -2.5360      2.00000
    128      -2.5132      2.00000
    129      -2.5095      2.00000
    130      -2.4870      2.00000
    131      -2.4288      2.00000
    132      -2.4250      2.00000
    133      -2.3773      2.00000
    134      -2.3739      2.00000
    135      -2.3277      2.00000
    136      -2.3261      2.00000
    137      -2.3252      2.00000
    138      -2.2934      2.00000
    139      -2.2720      2.00000
    140      -2.2682      2.00000
    141      -2.2655      2.00000
    142      -2.2630      2.00000
    143      -2.2554      2.00000
    144      -2.2514      2.00000
    145      -2.2458      2.00000
    146      -2.2254      2.00000
    147      -2.2246      2.00000
    148      -2.1871      2.00000
    149      -2.1836      2.00000
    150      -2.1665      2.00000
    151      -2.1376      2.00000
    152      -2.1034      2.00000
    153      -2.0988      2.00000
    154      -2.0871      2.00000
    155      -2.0821      2.00000
    156      -2.0805      2.00000
    157      -2.0778      2.00000
    158      -2.0748      2.00000
    159      -2.0559      2.00000
    160      -2.0538      2.00000
    161      -2.0522      2.00000
    162      -2.0510      2.00000
    163      -2.0415      2.00000
    164      -2.0400      2.00000
    165      -2.0368      2.00000
    166      -2.0357      2.00000
    167      -1.9643      2.00000
    168      -1.9565      2.00000
    169      -1.9463      2.00000
    170      -1.9297      2.00000
    171      -1.9289      2.00000
    172      -1.9233      2.00000
    173      -1.9139      2.00000
    174      -1.9016      2.00000
    175      -1.9012      2.00000
    176      -1.8858      2.00000
    177      -1.8853      2.00000
    178      -1.8626      2.00000
    179      -1.8601      2.00000
    180      -1.8579      2.00000
    181      -1.8542      2.00000
    182      -1.8448      2.00000
    183      -1.8436      2.00000
    184      -1.8331      2.00000
    185      -1.8241      2.00000
    186      -1.7779      2.00000
    187      -1.5987      2.00000
    188      -1.5036      2.00000
    189      -1.4757      2.00000
    190      -1.2275      2.00000
    191      -1.2260      2.00000
    192      -0.8933      1.99800
    193      -0.8909      1.99791
    194      -0.7462      1.99025
    195      -0.5626      2.09713
    196      -0.5618      2.09759
    197      -0.4163      1.64014
    198      -0.4114      1.59955
    199       0.1510      0.00405
    200       0.3605      0.00003
    201       0.3650      0.00003
    202       0.5493      0.00000
    203       0.5509      0.00000
    204       0.6416      0.00000
    205       0.6457      0.00000
    206       0.8212      0.00000
    207       0.8313      0.00000
    208       1.0521      0.00000
    209       1.0556      0.00000
    210       1.4730      0.00000
    211       1.6228      0.00000
    212       1.6341      0.00000
    213       1.6935      0.00000
    214       1.9048      0.00000
    215       2.4371      0.00000
    216       2.7521      0.00000
    217       2.7582      0.00000
    218       2.8763      0.00000
    219       2.8843      0.00000
    220       3.2195      0.00000
    221       3.2217      0.00000
    222       3.5206      0.00000
    223       3.5280      0.00000
    224       3.5848      0.00000
    225       3.6652      0.00000
    226       3.6664      0.00000
    227       4.1719      0.00000
    228       4.1735      0.00000
    229       4.2638      0.00000
    230       4.2714      0.00000
    231       4.4634      0.00000
    232       4.7209      0.00000
    233       4.8169      0.00000
    234       5.1631      0.00000
    235       5.1648      0.00000
    236       5.3355      0.00000
    237       5.3371      0.00000
    238       5.3953      0.00000
    239       5.6038      0.00000
    240       5.6099      0.00000

 k-point     7 :      -0.3750    0.3750    0.0000
  band No.  band energies     occupation 
      1      -8.1178      2.00000
      2      -7.5036      2.00000
      3      -7.4982      2.00000
      4      -6.9136      2.00000
      5      -6.6199      2.00000
      6      -6.0860      2.00000
      7      -6.0752      2.00000
      8      -5.5761      2.00000
      9      -4.9900      2.00000
     10      -4.9827      2.00000
     11      -4.8481      2.00000
     12      -4.8069      2.00000
     13      -4.7977      2.00000
     14      -4.7541      2.00000
     15      -4.7253      2.00000
     16      -4.7229      2.00000
     17      -4.6974      2.00000
     18      -4.5461      2.00000
     19      -4.5307      2.00000
     20      -4.5253      2.00000
     21      -4.5082      2.00000
     22      -4.5048      2.00000
     23      -4.3836      2.00000
     24      -4.3811      2.00000
     25      -4.3510      2.00000
     26      -4.3439      2.00000
     27      -4.3137      2.00000
     28      -4.3077      2.00000
     29      -4.2970      2.00000
     30      -4.2938      2.00000
     31      -4.2255      2.00000
     32      -4.2049      2.00000
     33      -4.2008      2.00000
     34      -4.1962      2.00000
     35      -4.1507      2.00000
     36      -4.1459      2.00000
     37      -4.1259      2.00000
     38      -4.0680      2.00000
     39      -4.0668      2.00000
     40      -4.0589      2.00000
     41      -4.0142      2.00000
     42      -3.8907      2.00000
     43      -3.8521      2.00000
     44      -3.8138      2.00000
     45      -3.8110      2.00000
     46      -3.7500      2.00000
     47      -3.7393      2.00000
     48      -3.7244      2.00000
     49      -3.7181      2.00000
     50      -3.7123      2.00000
     51      -3.6958      2.00000
     52      -3.6910      2.00000
     53      -3.6563      2.00000
     54      -3.6474      2.00000
     55      -3.6160      2.00000
     56      -3.5308      2.00000
     57      -3.5221      2.00000
     58      -3.5139      2.00000
     59      -3.5069      2.00000
     60      -3.4696      2.00000
     61      -3.4620      2.00000
     62      -3.4263      2.00000
     63      -3.4239      2.00000
     64      -3.3869      2.00000
     65      -3.3760      2.00000
     66      -3.3598      2.00000
     67      -3.3508      2.00000
     68      -3.3384      2.00000
     69      -3.3291      2.00000
     70      -3.2825      2.00000
     71      -3.2726      2.00000
     72      -3.2517      2.00000
     73      -3.2480      2.00000
     74      -3.2382      2.00000
     75      -3.2283      2.00000
     76      -3.1937      2.00000
     77      -3.1593      2.00000
     78      -3.1522      2.00000
     79      -3.1489      2.00000
     80      -3.1437      2.00000
     81      -3.1413      2.00000
     82      -3.1330      2.00000
     83      -3.0770      2.00000
     84      -3.0646      2.00000
     85      -3.0603      2.00000
     86      -3.0420      2.00000
     87      -3.0226      2.00000
     88      -3.0204      2.00000
     89      -2.9924      2.00000
     90      -2.9883      2.00000
     91      -2.9648      2.00000
     92      -2.9590      2.00000
     93      -2.9558      2.00000
     94      -2.9187      2.00000
     95      -2.9148      2.00000
     96      -2.8647      2.00000
     97      -2.8543      2.00000
     98      -2.8507      2.00000
     99      -2.8329      2.00000
    100      -2.8167      2.00000
    101      -2.8108      2.00000
    102      -2.7770      2.00000
    103      -2.7589      2.00000
    104      -2.7507      2.00000
    105      -2.7478      2.00000
    106      -2.7451      2.00000
    107      -2.7357      2.00000
    108      -2.7342      2.00000
    109      -2.7268      2.00000
    110      -2.7147      2.00000
    111      -2.6647      2.00000
    112      -2.6616      2.00000
    113      -2.6587      2.00000
    114      -2.6513      2.00000
    115      -2.6354      2.00000
    116      -2.6269      2.00000
    117      -2.6113      2.00000
    118      -2.6079      2.00000
    119      -2.6020      2.00000
    120      -2.6002      2.00000
    121      -2.5947      2.00000
    122      -2.5909      2.00000
    123      -2.5845      2.00000
    124      -2.5716      2.00000
    125      -2.5689      2.00000
    126      -2.5679      2.00000
    127      -2.5362      2.00000
    128      -2.5116      2.00000
    129      -2.5103      2.00000
    130      -2.4880      2.00000
    131      -2.4290      2.00000
    132      -2.4241      2.00000
    133      -2.3770      2.00000
    134      -2.3742      2.00000
    135      -2.3278      2.00000
    136      -2.3265      2.00000
    137      -2.3255      2.00000
    138      -2.2933      2.00000
    139      -2.2716      2.00000
    140      -2.2689      2.00000
    141      -2.2664      2.00000
    142      -2.2626      2.00000
    143      -2.2549      2.00000
    144      -2.2518      2.00000
    145      -2.2453      2.00000
    146      -2.2254      2.00000
    147      -2.2245      2.00000
    148      -2.1869      2.00000
    149      -2.1836      2.00000
    150      -2.1665      2.00000
    151      -2.1375      2.00000
    152      -2.1035      2.00000
    153      -2.0986      2.00000
    154      -2.0874      2.00000
    155      -2.0823      2.00000
    156      -2.0806      2.00000
    157      -2.0776      2.00000
    158      -2.0746      2.00000
    159      -2.0558      2.00000
    160      -2.0539      2.00000
    161      -2.0520      2.00000
    162      -2.0508      2.00000
    163      -2.0414      2.00000
    164      -2.0397      2.00000
    165      -2.0371      2.00000
    166      -2.0356      2.00000
    167      -1.9642      2.00000
    168      -1.9567      2.00000
    169      -1.9465      2.00000
    170      -1.9300      2.00000
    171      -1.9288      2.00000
    172      -1.9233      2.00000
    173      -1.9142      2.00000
    174      -1.9015      2.00000
    175      -1.9011      2.00000
    176      -1.8859      2.00000
    177      -1.8852      2.00000
    178      -1.8626      2.00000
    179      -1.8607      2.00000
    180      -1.8573      2.00000
    181      -1.8539      2.00000
    182      -1.8450      2.00000
    183      -1.8433      2.00000
    184      -1.8333      2.00000
    185      -1.8241      2.00000
    186      -1.7779      2.00000
    187      -1.5987      2.00000
    188      -1.5037      2.00000
    189      -1.4757      2.00000
    190      -1.2274      2.00000
    191      -1.2260      2.00000
    192      -0.8929      1.99799
    193      -0.8913      1.99793
    194      -0.7463      1.99024
    195      -0.5627      2.09708
    196      -0.5617      2.09765
    197      -0.4172      1.64744
    198      -0.4102      1.58979
    199       0.1510      0.00406
    200       0.3604      0.00003
    201       0.3650      0.00003
    202       0.5492      0.00000
    203       0.5508      0.00000
    204       0.6415      0.00000
    205       0.6456      0.00000
    206       0.8215      0.00000
    207       0.8311      0.00000
    208       1.0526      0.00000
    209       1.0552      0.00000
    210       1.4731      0.00000
    211       1.6251      0.00000
    212       1.6338      0.00000
    213       1.6916      0.00000
    214       1.9048      0.00000
    215       2.4373      0.00000
    216       2.7510      0.00000
    217       2.7593      0.00000
    218       2.8754      0.00000
    219       2.8851      0.00000
    220       3.2198      0.00000
    221       3.2218      0.00000
    222       3.5206      0.00000
    223       3.5281      0.00000
    224       3.5833      0.00000
    225       3.6644      0.00000
    226       3.6679      0.00000
    227       4.1719      0.00000
    228       4.1735      0.00000
    229       4.2635      0.00000
    230       4.2719      0.00000
    231       4.4637      0.00000
    232       4.7210      0.00000
    233       4.8169      0.00000
    234       5.1632      0.00000
    235       5.1647      0.00000
    236       5.3355      0.00000
    237       5.3374      0.00000
    238       5.3957      0.00000
    239       5.6039      0.00000
    240       5.6099      0.00000

 k-point     8 :      -0.1250    0.3750    0.0000
  band No.  band energies     occupation 
      1      -8.4378      2.00000
      2      -7.8097      2.00000
      3      -6.9150      2.00000
      4      -6.6508      2.00000
      5      -6.3621      2.00000
      6      -6.1299      2.00000
      7      -5.7116      2.00000
      8      -5.4444      2.00000
      9      -5.3202      2.00000
     10      -5.1771      2.00000
     11      -5.0823      2.00000
     12      -5.0116      2.00000
     13      -4.9832      2.00000
     14      -4.9747      2.00000
     15      -4.7324      2.00000
     16      -4.7038      2.00000
     17      -4.6977      2.00000
     18      -4.6432      2.00000
     19      -4.6342      2.00000
     20      -4.5935      2.00000
     21      -4.4841      2.00000
     22      -4.4330      2.00000
     23      -4.4232      2.00000
     24      -4.3874      2.00000
     25      -4.3563      2.00000
     26      -4.3193      2.00000
     27      -4.3089      2.00000
     28      -4.3003      2.00000
     29      -4.2868      2.00000
     30      -4.2580      2.00000
     31      -4.2394      2.00000
     32      -4.2337      2.00000
     33      -4.1431      2.00000
     34      -4.1375      2.00000
     35      -4.0606      2.00000
     36      -4.0495      2.00000
     37      -4.0255      2.00000
     38      -4.0172      2.00000
     39      -3.9556      2.00000
     40      -3.9525      2.00000
     41      -3.9351      2.00000
     42      -3.9084      2.00000
     43      -3.8985      2.00000
     44      -3.8333      2.00000
     45      -3.8289      2.00000
     46      -3.8179      2.00000
     47      -3.7649      2.00000
     48      -3.7260      2.00000
     49      -3.7228      2.00000
     50      -3.7044      2.00000
     51      -3.6965      2.00000
     52      -3.6380      2.00000
     53      -3.5943      2.00000
     54      -3.5846      2.00000
     55      -3.5706      2.00000
     56      -3.5466      2.00000
     57      -3.5394      2.00000
     58      -3.5263      2.00000
     59      -3.4791      2.00000
     60      -3.4746      2.00000
     61      -3.4569      2.00000
     62      -3.4525      2.00000
     63      -3.4398      2.00000
     64      -3.4320      2.00000
     65      -3.4215      2.00000
     66      -3.4138      2.00000
     67      -3.3979      2.00000
     68      -3.3239      2.00000
     69      -3.2846      2.00000
     70      -3.2540      2.00000
     71      -3.2458      2.00000
     72      -3.2402      2.00000
     73      -3.2209      2.00000
     74      -3.2086      2.00000
     75      -3.1606      2.00000
     76      -3.1394      2.00000
     77      -3.1147      2.00000
     78      -3.1110      2.00000
     79      -3.1009      2.00000
     80      -3.0970      2.00000
     81      -3.0899      2.00000
     82      -3.0860      2.00000
     83      -3.0771      2.00000
     84      -3.0753      2.00000
     85      -3.0578      2.00000
     86      -3.0452      2.00000
     87      -3.0313      2.00000
     88      -3.0271      2.00000
     89      -3.0057      2.00000
     90      -2.9979      2.00000
     91      -2.9937      2.00000
     92      -2.9712      2.00000
     93      -2.9647      2.00000
     94      -2.9308      2.00000
     95      -2.9235      2.00000
     96      -2.8967      2.00000
     97      -2.8708      2.00000
     98      -2.8676      2.00000
     99      -2.8088      2.00000
    100      -2.7947      2.00000
    101      -2.7612      2.00000
    102      -2.7568      2.00000
    103      -2.7467      2.00000
    104      -2.7405      2.00000
    105      -2.7344      2.00000
    106      -2.7301      2.00000
    107      -2.7129      2.00000
    108      -2.7076      2.00000
    109      -2.6968      2.00000
    110      -2.6784      2.00000
    111      -2.6685      2.00000
    112      -2.6546      2.00000
    113      -2.6231      2.00000
    114      -2.6082      2.00000
    115      -2.6050      2.00000
    116      -2.5976      2.00000
    117      -2.5950      2.00000
    118      -2.5872      2.00000
    119      -2.5627      2.00000
    120      -2.5563      2.00000
    121      -2.5422      2.00000
    122      -2.5243      2.00000
    123      -2.5148      2.00000
    124      -2.5082      2.00000
    125      -2.5025      2.00000
    126      -2.4410      2.00000
    127      -2.4117      2.00000
    128      -2.3951      2.00000
    129      -2.3855      2.00000
    130      -2.3850      2.00000
    131      -2.3698      2.00000
    132      -2.3592      2.00000
    133      -2.3411      2.00000
    134      -2.3313      2.00000
    135      -2.3220      2.00000
    136      -2.3180      2.00000
    137      -2.3125      2.00000
    138      -2.3079      2.00000
    139      -2.2887      2.00000
    140      -2.2813      2.00000
    141      -2.2781      2.00000
    142      -2.2751      2.00000
    143      -2.2605      2.00000
    144      -2.2594      2.00000
    145      -2.2380      2.00000
    146      -2.2353      2.00000
    147      -2.2167      2.00000
    148      -2.2083      2.00000
    149      -2.1807      2.00000
    150      -2.1743      2.00000
    151      -2.1688      2.00000
    152      -2.1355      2.00000
    153      -2.1190      2.00000
    154      -2.1118      2.00000
    155      -2.1037      2.00000
    156      -2.1014      2.00000
    157      -2.0653      2.00000
    158      -2.0599      2.00000
    159      -2.0384      2.00000
    160      -2.0372      2.00000
    161      -2.0354      2.00000
    162      -2.0266      2.00000
    163      -2.0212      2.00000
    164      -2.0171      2.00000
    165      -2.0127      2.00000
    166      -1.9990      2.00000
    167      -1.9811      2.00000
    168      -1.9777      2.00000
    169      -1.9757      2.00000
    170      -1.9741      2.00000
    171      -1.9641      2.00000
    172      -1.9519      2.00000
    173      -1.9496      2.00000
    174      -1.9454      2.00000
    175      -1.9310      2.00000
    176      -1.9111      2.00000
    177      -1.8924      2.00000
    178      -1.8818      2.00000
    179      -1.8713      2.00000
    180      -1.8677      2.00000
    181      -1.8577      2.00000
    182      -1.8265      2.00000
    183      -1.8166      2.00000
    184      -1.8136      2.00000
    185      -1.7982      2.00000
    186      -1.7745      2.00000
    187      -1.7237      2.00000
    188      -1.6859      2.00000
    189      -1.6605      2.00000
    190      -1.6007      2.00000
    191      -1.5605      2.00000
    192      -1.4945      2.00000
    193      -1.4249      2.00000
    194      -1.0723      1.99998
    195      -0.9824      1.99972
    196      -0.8480      1.99569
    197      -0.6760      2.00633
    198      -0.2515      0.12803
    199      -0.0706     -0.03796
    200      -0.0569     -0.02666
    201       0.0181      0.00737
    202       0.1193      0.00626
    203       0.2612      0.00045
    204       0.4624      0.00000
    205       0.6950      0.00000
    206       0.8933      0.00000
    207       1.2701      0.00000
    208       1.4143      0.00000
    209       1.6818      0.00000
    210       1.6996      0.00000
    211       2.1829      0.00000
    212       2.2791      0.00000
    213       2.3380      0.00000
    214       2.3645      0.00000
    215       2.3814      0.00000
    216       2.7122      0.00000
    217       2.8276      0.00000
    218       2.9121      0.00000
    219       3.2050      0.00000
    220       3.3620      0.00000
    221       3.3696      0.00000
    222       3.7718      0.00000
    223       3.8026      0.00000
    224       3.8473      0.00000
    225       3.8501      0.00000
    226       4.0141      0.00000
    227       4.0940      0.00000
    228       4.4150      0.00000
    229       4.5574      0.00000
    230       4.6368      0.00000
    231       4.6594      0.00000
    232       4.9553      0.00000
    233       5.0312      0.00000
    234       5.0660      0.00000
    235       5.0686      0.00000
    236       5.1773      0.00000
    237       5.1989      0.00000
    238       5.4320      0.00000
    239       5.5805      0.00000
    240       5.7870      0.00000


--------------------------------------------------------------------------------------------------------


 soft charge-density along one line, spin component           1
         0         1         2         3         4         5         6         7         8         9
 total charge-density along one line
 
 pseudopotential strength for first ion, spin component:           1
 -8.336  -0.000   0.000  -0.000   0.000  -0.617   0.000  -0.000
 -0.000  -8.330  -0.000  -0.000   0.000   0.000  -0.624   0.000
  0.000  -0.000  -8.316  -0.000  -0.000  -0.000   0.000  -0.636
 -0.000  -0.000  -0.000  -8.330  -0.000   0.000   0.000   0.000
  0.000   0.000  -0.000  -0.000  -8.356  -0.000  -0.000   0.000
 -0.617   0.000  -0.000   0.000  -0.000   7.440  -0.000   0.000
  0.000  -0.624   0.000   0.000  -0.000  -0.000   7.446  -0.000
 -0.000   0.000  -0.636   0.000   0.000   0.000  -0.000   7.455
  0.000   0.000   0.000  -0.624   0.000  -0.000  -0.000  -0.000
 -0.000  -0.000   0.000   0.000  -0.602   0.000   0.000  -0.000
  0.000   0.000  -0.006   0.000   0.000  -0.000  -0.000   0.003
  0.000   0.000  -0.011   0.000   0.000  -0.000  -0.000   0.005
 -0.000  -0.014   0.000   0.000   0.000   0.000   0.011  -0.000
  0.000  -0.000  -0.016  -0.000   0.000  -0.000   0.000   0.011
 -0.000   0.000   0.000  -0.014  -0.000   0.000  -0.000  -0.000
 -0.000  -0.016   0.000   0.000   0.000  -0.000   0.013  -0.000
  0.000  -0.000  -0.017  -0.000   0.000  -0.000   0.000   0.013
 -0.000   0.000   0.000  -0.016  -0.000  -0.000  -0.000  -0.000
 total augmentation occupancy for first ion, spin component:           1
  1.924  -0.000   0.000  -0.000   0.000  -0.035   0.000  -0.000   0.000  -0.000  -0.000  -0.000   0.000   0.000   0.000  -0.000
 -0.000   1.924   0.000  -0.000  -0.000   0.000  -0.026   0.000   0.000  -0.000   0.000   0.000   0.031   0.000   0.000  -0.018
  0.000   0.000   1.939  -0.000  -0.000  -0.000  -0.000  -0.037   0.000   0.000   0.000   0.013   0.000   0.046  -0.000   0.000
 -0.000  -0.000  -0.000   1.923   0.000   0.000   0.000   0.000  -0.026   0.000   0.000   0.000   0.000   0.000   0.032  -0.000
  0.000  -0.000  -0.000   0.000   1.908  -0.000  -0.000   0.000   0.000  -0.008  -0.000  -0.000  -0.000   0.000   0.000   0.000
 -0.035   0.000  -0.000   0.000  -0.000   0.011  -0.000   0.000  -0.000   0.000   0.000   0.000  -0.000  -0.000  -0.000   0.000
  0.000  -0.026  -0.000   0.000  -0.000  -0.000   0.009  -0.000  -0.000   0.000   0.000  -0.000   0.021  -0.000  -0.000  -0.001
 -0.000   0.000  -0.037   0.000   0.000   0.000  -0.000   0.011  -0.000  -0.000  -0.031   0.001  -0.000   0.017   0.000  -0.000
  0.000   0.000   0.000  -0.026   0.000  -0.000  -0.000  -0.000   0.009  -0.000   0.000   0.000  -0.000  -0.000   0.021   0.000
 -0.000  -0.000   0.000   0.000  -0.008   0.000   0.000  -0.000  -0.000   0.012   0.000   0.000   0.000   0.000   0.000  -0.000
 -0.000   0.000   0.000   0.000  -0.000   0.000   0.000  -0.031   0.000   0.000   1.591  -0.118   0.000   0.163   0.000  -0.000
 -0.000   0.000   0.013   0.000  -0.000   0.000  -0.000   0.001   0.000   0.000  -0.118   0.014   0.000  -0.023   0.000   0.000
  0.000   0.031   0.000   0.000  -0.000  -0.000   0.021  -0.000  -0.000   0.000   0.000   0.000   0.177  -0.000  -0.000  -0.010
  0.000   0.000   0.046   0.000   0.000  -0.000  -0.000   0.017  -0.000   0.000   0.163  -0.023  -0.000   0.105  -0.000   0.000
  0.000   0.000  -0.000   0.032   0.000  -0.000  -0.000   0.000   0.021   0.000   0.000   0.000  -0.000  -0.000   0.177   0.000
 -0.000  -0.018   0.000  -0.000   0.000   0.000  -0.001  -0.000   0.000  -0.000  -0.000   0.000  -0.010   0.000   0.000   0.001
  0.000  -0.000  -0.021  -0.000  -0.000   0.000   0.000  -0.000   0.000   0.000  -0.023   0.002   0.000  -0.008   0.000   0.000
 -0.000   0.000   0.000  -0.018  -0.000   0.000   0.000  -0.000  -0.001   0.000  -0.000   0.000   0.000  -0.000  -0.010  -0.000


------------------------ aborting loop because EDIFF is reached ----------------------------------------


    CHARGE:  cpu time    0.6482: real time    0.6528
    FORLOC:  cpu time    0.0166: real time    0.0167
    FORNL :  cpu time    2.3636: real time    2.3802
    STRESS:  cpu time    7.0785: real time    7.1227
    FORCOR:  cpu time    0.0937: real time    0.0942
    FORHAR:  cpu time    0.0329: real time    0.0331
    MIXING:  cpu time    0.0096: real time    0.0097
    OFIELD:  cpu time    0.0001: real time    0.0001

  FORCE on cell =-STRESS in cart. coord.  units (eV):
  Direction    XX          YY          ZZ          XY          YZ          ZX
  --------------------------------------------------------------------------------------
  Alpha Z   718.07260   718.07260   718.07260
  Ewald  189880.85828189876.92834************    -0.40328    -3.39754    -2.43625
  Hartree202923.05297202919.93894************    -0.21058    -1.81299    -1.41285
  E(xc)   -2312.64684 -2312.65029 -2319.78293    -0.00050    -0.00452    -0.00322
  Local  ************************405538.31866     0.59900     5.11266     3.78758
  n-local  -798.01134  -798.00937  -808.99446    -0.00600    -0.05228    -0.02448
  augment  3399.95045  3399.95416  3411.05222     0.00557     0.04698     0.02696
  Kinetic  3206.34880  3206.35962  3224.39668     0.00336     0.02737     0.02418
  Fock        0.00000     0.00000     0.00000     0.00000     0.00000     0.00000
  -------------------------------------------------------------------------------------
  Total      -3.81545    -3.78799    -3.48499    -0.01243    -0.08033    -0.03810
  in kB      -4.63135    -4.59802    -4.23022    -0.01509    -0.09751    -0.04624
  external pressure =       -4.49 kB  Pullay stress =        0.00 kB


 VOLUME and BASIS-vectors are now :
 -----------------------------------------------------------------------------
  energy-cutoff  :      544.00
  volume of cell :     1319.92
      direct lattice vectors                 reciprocal lattice vectors
     7.700375000  0.000000000  0.000000000     0.129863805  0.000000000  0.000000000
     0.000000000  7.700375000  0.000000000     0.000000000  0.129863805  0.000000000
     0.000000000  0.000000000 22.259998000     0.000000000  0.000000000  0.044923634

  length of vectors
     7.700375000  7.700375000 22.259998000     0.129863805  0.129863805  0.044923634


 FORCES acting on ions
    electron-ion (+dipol)            ewald-force                    non-local-force                 convergence-correction
 -----------------------------------------------------------------------------------------------
   0.165E+01 0.278E+01 0.327E+04   -.163E+01 -.275E+01 -.327E+04   -.225E-01 -.342E-01 -.410E+01   -.139E-04 0.940E-05 0.167E-02
   -.168E+01 0.331E+01 0.327E+04   0.166E+01 -.327E+01 -.327E+04   0.173E-01 -.335E-01 -.411E+01   0.445E-04 0.585E-04 0.168E-02
   0.318E-01 0.283E+01 0.327E+04   -.355E-01 -.280E+01 -.326E+04   0.304E-02 -.258E-01 -.413E+01   -.303E-04 -.181E-04 0.169E-02
   0.221E+01 0.255E-01 0.328E+04   -.220E+01 -.257E-01 -.327E+04   -.894E-02 0.108E-03 -.404E+01   0.608E-04 -.104E-04 0.170E-02
   -.175E+01 0.111E-01 0.328E+04   0.175E+01 -.117E-01 -.327E+04   0.137E-02 0.606E-03 -.400E+01   0.239E-04 -.509E-05 0.170E-02
   -.475E+00 0.382E-01 0.327E+04   0.465E+00 -.378E-01 -.327E+04   0.965E-02 -.350E-03 -.409E+01   -.844E-04 -.366E-05 0.170E-02
   0.163E+01 -.281E+01 0.327E+04   -.160E+01 0.277E+01 -.327E+04   -.210E-01 0.351E-01 -.409E+01   -.158E-04 0.679E-06 0.167E-02
   -.168E+01 -.332E+01 0.327E+04   0.166E+01 0.328E+01 -.327E+04   0.178E-01 0.343E-01 -.411E+01   0.502E-04 -.533E-04 0.168E-02
   0.482E-01 -.285E+01 0.327E+04   -.526E-01 0.283E+01 -.326E+04   0.374E-02 0.243E-01 -.413E+01   -.342E-04 0.216E-04 0.169E-02
   0.979E+01 -.654E+00 0.109E+04   -.977E+01 0.647E+00 -.109E+04   -.553E-01 0.140E-01 -.165E+00   -.659E-04 0.429E-05 0.340E-02
   -.259E+01 -.241E+00 0.110E+04   0.257E+01 0.238E+00 -.110E+04   0.330E-01 0.505E-02 -.243E+00   0.124E-04 0.148E-04 0.342E-02
   -.754E+01 -.381E+00 0.109E+04   0.754E+01 0.375E+00 -.109E+04   0.341E-01 0.976E-02 -.134E+00   0.529E-04 0.557E-06 0.340E-02
   0.842E+01 0.117E+02 0.110E+04   -.842E+01 -.117E+02 -.110E+04   -.410E-01 -.213E-01 -.400E+00   -.243E-04 -.216E-04 0.345E-02
   0.246E+01 0.183E+02 0.111E+04   -.247E+01 -.183E+02 -.111E+04   -.887E-02 -.958E-01 -.609E+00   0.417E-04 0.370E-04 0.340E-02
   -.106E+02 0.160E+02 0.111E+04   0.106E+02 -.160E+02 -.110E+04   0.428E-01 -.532E-01 -.502E+00   -.171E-04 0.119E-04 0.339E-02
   0.844E+01 -.116E+02 0.110E+04   -.843E+01 0.117E+02 -.110E+04   -.456E-01 0.285E-01 -.397E+00   -.375E-04 0.169E-04 0.345E-02
   0.251E+01 -.181E+02 0.111E+04   -.252E+01 0.181E+02 -.111E+04   -.131E-01 0.930E-01 -.610E+00   0.465E-04 -.522E-04 0.340E-02
   -.103E+02 -.161E+02 0.111E+04   0.103E+02 0.161E+02 -.110E+04   0.392E-01 0.615E-01 -.490E+00   -.874E-05 -.126E-04 0.339E-02
   0.210E+01 -.262E+01 -.112E+04   -.212E+01 0.259E+01 0.111E+04   0.261E-01 0.631E-01 0.420E+00   -.140E-04 0.347E-04 0.310E-02
   -.640E+01 0.121E+01 -.112E+04   0.641E+01 -.124E+01 0.112E+04   0.153E-01 0.943E-02 0.423E+00   0.260E-04 -.250E-05 0.309E-02
   0.399E+01 0.746E+01 -.114E+04   -.399E+01 -.742E+01 0.114E+04   -.330E-01 -.137E+00 0.139E+00   -.108E-04 0.145E-04 0.306E-02
   0.452E+01 -.521E+00 -.108E+04   -.451E+01 0.523E+00 0.108E+04   -.643E-01 0.373E-02 0.123E+01   -.396E-04 -.125E-04 0.314E-02
   -.809E+01 -.265E+00 -.107E+04   0.807E+01 0.270E+00 0.106E+04   0.107E+00 -.106E-02 0.164E+01   0.220E-04 -.995E-05 0.308E-02
   0.183E+01 0.598E+00 -.111E+04   -.180E+01 -.596E+00 0.111E+04   -.341E-02 -.443E-02 0.796E+00   0.212E-04 0.353E-05 0.312E-02
   0.204E+01 0.322E+01 -.111E+04   -.207E+01 -.319E+01 0.111E+04   0.232E-01 -.738E-01 0.439E+00   -.284E-04 -.220E-04 0.311E-02
   -.609E+01 -.995E+00 -.112E+04   0.610E+01 0.102E+01 0.112E+04   0.162E-01 -.118E-01 0.417E+00   0.413E-04 0.120E-04 0.309E-02
   0.391E+01 -.783E+01 -.114E+04   -.390E+01 0.778E+01 0.114E+04   -.402E-01 0.128E+00 0.137E+00   -.123E-04 -.179E-04 0.306E-02
   0.276E+01 0.156E+01 -.325E+04   -.275E+01 -.154E+01 0.324E+04   -.246E-01 -.286E-01 0.392E+01   -.700E-05 0.560E-05 0.158E-02
   0.216E+01 0.104E+01 -.324E+04   -.214E+01 -.103E+01 0.323E+04   -.175E-01 -.693E-02 0.377E+01   0.309E-04 0.130E-04 0.163E-02
   -.452E+01 0.719E+00 -.324E+04   0.448E+01 -.715E+00 0.324E+04   0.406E-01 -.785E-02 0.385E+01   -.238E-04 0.519E-05 0.159E-02
   0.118E+01 0.304E+01 -.326E+04   -.114E+01 -.294E+01 0.326E+04   -.486E-01 -.109E+00 0.363E+01   -.123E-04 0.649E-04 0.160E-02
   0.600E+01 0.102E+01 -.328E+04   -.590E+01 -.916E+00 0.327E+04   -.135E+00 -.937E-01 0.340E+01   -.213E-04 -.693E-06 0.159E-02
   -.650E+01 0.198E+01 -.328E+04   0.637E+01 -.191E+01 0.328E+04   0.171E+00 -.679E-01 0.357E+01   0.324E-04 0.154E-04 0.157E-02
   -.654E+00 -.431E+01 -.326E+04   0.673E+00 0.419E+01 0.325E+04   -.152E-01 0.139E+00 0.362E+01   -.204E-04 -.709E-04 0.160E-02
   0.556E+01 -.190E+01 -.328E+04   -.547E+01 0.181E+01 0.328E+04   -.123E+00 0.839E-01 0.343E+01   -.208E-04 -.122E-04 0.159E-02
   -.436E+01 -.232E+01 -.328E+04   0.428E+01 0.224E+01 0.327E+04   0.108E+00 0.736E-01 0.356E+01   0.410E-04 -.203E-04 0.158E-02
 -----------------------------------------------------------------------------------------------
   0.172E-01 0.539E-02 0.189E+01   -.213E-13 -.358E-12 0.455E-11   -.115E-01 0.913E-03 -.197E+01   0.477E-05 -.142E-05 0.881E-01
 
 
 POSITION                                       TOTAL-FORCE (eV/Angst)
 -----------------------------------------------------------------------------------
      1.28340      1.28340      0.00000         0.000808      0.000842      0.011963
      3.85020      1.28340      0.00000        -0.000334     -0.000390      0.011036
      6.41699      1.28340      0.00000        -0.000781      0.000570      0.016391
      1.28340      3.85020      0.00000        -0.001613     -0.000274     -0.000223
      3.85020      3.85020      0.00000         0.001150     -0.000201     -0.007419
      6.41699      3.85020      0.00000        -0.000099     -0.000097      0.004781
      1.28340      6.41699      0.00000         0.000558     -0.001056      0.011538
      3.85020      6.41699      0.00000        -0.000123      0.000076      0.011193
      6.41699      6.41699      0.00000        -0.000934     -0.000578      0.016946
      0.00000      0.00000      1.81500        -0.036604      0.006489      0.093814
      2.56680      0.00000      1.81500         0.013967      0.001669      0.050038
      5.13360      0.00000      1.81500         0.030010      0.004352      0.111660
      0.00000      2.56680      1.81500        -0.037255     -0.045481     -0.003074
      2.56680      2.56680      1.81500        -0.019288     -0.098892     -0.099802
      5.13360      2.56680      1.81500         0.049801     -0.069902     -0.030709
      0.00000      5.13360      1.81500        -0.039513      0.051564     -0.004156
      2.56680      5.13360      1.81500        -0.021722      0.096946     -0.099625
      5.13360      5.13360      1.81500         0.045283      0.075919     -0.030072
      1.28975      1.29021      3.70252         0.004264      0.033292      0.061073
      3.85197      1.29787      3.70839         0.022507     -0.014841      0.051831
      6.42079      1.31262      3.73355        -0.027032     -0.090612     -0.076034
      1.29175      3.85003      3.64159        -0.055272      0.005153      0.447854
      3.83593      3.84940      3.61478         0.081621      0.003548      0.620104
      6.40443      3.85485      3.68585         0.019158     -0.002807      0.237488
      1.28586      6.41206      3.70075         0.001947     -0.036086      0.072454
      3.84707      6.40234      3.70801         0.028365      0.016549      0.052776
      6.41759      6.40105      3.73111        -0.029968      0.080214     -0.075837
      0.01020      0.00861      5.51468        -0.011595     -0.013303      0.019909
      2.57158      7.69627      5.51101         0.002012      0.000511      0.031589
      5.13285      0.00689      5.51822        -0.000001     -0.004123      0.011483
      0.01886      2.58861      5.55782        -0.015552     -0.008267     -0.165784
      2.58306      2.57366      5.59929        -0.038851      0.011336     -0.313017
      5.12447      2.58637      5.60244         0.040084      0.005049     -0.294378
      0.00347      5.12458      5.55327         0.003602      0.012871     -0.157242
      2.56947      5.11725      5.60011        -0.030527     -0.009787     -0.322402
      5.11641      5.12834      5.59375         0.021926     -0.010255     -0.266149
 -----------------------------------------------------------------------------------
    total drift:                                0.005760      0.006306      0.009044


--------------------------------------------------------------------------------------------------------



  FREE ENERGIE OF THE ION-ELECTRON SYSTEM (eV)
  ---------------------------------------------------
  free  energy   TOTEN  =      -108.07431685 eV

  energy  without entropy=     -108.06756474  energy(sigma->0) =     -108.07262882
 


--------------------------------------------------------------------------------------------------------


    POTLOK:  cpu time    0.0890: real time    0.0897


--------------------------------------------------------------------------------------------------------


 stress matrix after NEB project (eV)
     -3.81545     -0.01243     -0.03810
     -0.01243     -3.78799     -0.08033
     -0.03810     -0.08033     -3.48499
  FORCES: max atom, RMS     0.625463    0.176146
  FORCE total and by dimension    1.056876    0.620104
  Stress total and by dimension    6.408418    3.815453
     LOOP+:  cpu time  395.4645: real time  398.2450
 vacuum level on the upper side and lower side of the slab         1.992         5.833
    4ORBIT:  cpu time    0.0000: real time    0.0000

 total amount of memory used by VASP MPI-rank0   144874. kBytes
=======================================================================

   base      :      30000. kBytes
   nonlr-proj:      14881. kBytes
   fftplans  :       6175. kBytes
   grid      :      18948. kBytes
   one-center:        559. kBytes
   wavefun   :      74311. kBytes
 
  
  
 General timing and accounting informations for this job:
 ========================================================
  
                  Total CPU time used (sec):      404.370
                            User time (sec):      402.683
                          System time (sec):        1.686
                         Elapsed time (sec):      408.371
  
                   Maximum memory used (kb):      428572.
                   Average memory used (kb):           0.
  
                          Minor page faults:       246112
                          Major page faults:         2271
                 Voluntary context switches:         4726
