Cu                                      
   1.00000000000000     
     7.7003750000000002    0.0000000000000000    0.0000000000000000
     0.0000000000000000    7.7003750000000002    0.0000000000000000
     0.0000000000000000    0.0000000000000000   22.2599979999999995
   Cu
    36
Selective dynamics
Direct
  0.1666670779020478  0.1666670779020478  0.0000000000000000   F   F   F
  0.5000011038423438  0.1666670779020478  0.0000000000000000   F   F   F
  0.8333352596464465  0.1666670779020478  0.0000000000000000   F   F   F
  0.1666670779020478  0.5000011038423438  0.0000000000000000   F   F   F
  0.5000011038423438  0.5000011038423438  0.0000000000000000   F   F   F
  0.8333352596464465  0.5000011038423438  0.0000000000000000   F   F   F
  0.1666670779020478  0.8333352596464465  0.0000000000000000   F   F   F
  0.5000011038423438  0.8333352596464465  0.0000000000000000   F   F   F
  0.8333352596464465  0.8333352596464465  0.0000000000000000   F   F   F
  0.0000000000000000  0.0000000000000000  0.0815363954659816   F   F   F
  0.3333341558041027  0.0000000000000000  0.0815363954659816   F   F   F
  0.6666681817443987  0.0000000000000000  0.0815363954659816   F   F   F
  0.0000000000000000  0.3333341558041027  0.0815363954659816   F   F   F
  0.3333341558041027  0.3333341558041027  0.0815363954659816   F   F   F
  0.6666681817443987  0.3333341558041027  0.0815363954659816   F   F   F
  0.0000000000000000  0.6666681817443987  0.0815363954659816   F   F   F
  0.3333341558041027  0.6666681817443987  0.0815363954659816   F   F   F
  0.6666681817443987  0.6666681817443987  0.0815363954659816   F   F   F
  0.1674913234745077  0.1675517101439894  0.1663305630126288   T   T   T
  0.5002313523692052  0.1685456877100151  0.1665942647434235   T   T   T
  0.8338282226514906  0.1704623476129399  0.1677244086005771   T   T   T
  0.1677518302680099  0.4999800659058806  0.1635936355430019   T   T   T
  0.4981480772040356  0.4998972127980750  0.1623892778426992   T   T   T
  0.8317041702514487  0.5006058795837873  0.1655815961888223   T   T   T
  0.1669869324545914  0.8326942519033196  0.1662513626461219   T   T   T
  0.4995945002678468  0.8314315861240544  0.1665773285334495   T   T   T
  0.8334131779296428  0.8312643215427826  0.1676151992466473   T   T   T
  0.0013251302696276  0.0011174780449039  0.2477395999766046   T   T   T
  0.3339555541126273  0.9994666493514899  0.2475747302403164   T   T   T
  0.6665714332094197  0.0008950213463663  0.2478983600986879   T   T   T
  0.0024498806876281  0.3361660958070232  0.2496774258470253   T   T   T
  0.3354462607340523  0.3342256708277205  0.2515406335616035   T   T   T
  0.6654834342483298  0.3358757203382936  0.2516818734664739   T   T   T
  0.0004502378130908  0.6654973296755031  0.2494730682365756   T   T   T
  0.3336815414833723  0.6645449085271835  0.2515772912468393   T   T   T
  0.6644360826583124  0.6659853578559449  0.2512916667827199   T   T   T
 
  0.00000000E+00  0.00000000E+00  0.00000000E+00
  0.00000000E+00  0.00000000E+00  0.00000000E+00
  0.00000000E+00  0.00000000E+00  0.00000000E+00
  0.00000000E+00  0.00000000E+00  0.00000000E+00
  0.00000000E+00  0.00000000E+00  0.00000000E+00
  0.00000000E+00  0.00000000E+00  0.00000000E+00
  0.00000000E+00  0.00000000E+00  0.00000000E+00
  0.00000000E+00  0.00000000E+00  0.00000000E+00
  0.00000000E+00  0.00000000E+00  0.00000000E+00
  0.00000000E+00  0.00000000E+00  0.00000000E+00
  0.00000000E+00  0.00000000E+00  0.00000000E+00
  0.00000000E+00  0.00000000E+00  0.00000000E+00
  0.00000000E+00  0.00000000E+00  0.00000000E+00
  0.00000000E+00  0.00000000E+00  0.00000000E+00
  0.00000000E+00  0.00000000E+00  0.00000000E+00
  0.00000000E+00  0.00000000E+00  0.00000000E+00
  0.00000000E+00  0.00000000E+00  0.00000000E+00
  0.00000000E+00  0.00000000E+00  0.00000000E+00
  0.00000000E+00  0.00000000E+00  0.00000000E+00
  0.00000000E+00  0.00000000E+00  0.00000000E+00
  0.00000000E+00  0.00000000E+00  0.00000000E+00
  0.00000000E+00  0.00000000E+00  0.00000000E+00
  0.00000000E+00  0.00000000E+00  0.00000000E+00
  0.00000000E+00  0.00000000E+00  0.00000000E+00
  0.00000000E+00  0.00000000E+00  0.00000000E+00
  0.00000000E+00  0.00000000E+00  0.00000000E+00
  0.00000000E+00  0.00000000E+00  0.00000000E+00
  0.00000000E+00  0.00000000E+00  0.00000000E+00
  0.00000000E+00  0.00000000E+00  0.00000000E+00
  0.00000000E+00  0.00000000E+00  0.00000000E+00
  0.00000000E+00  0.00000000E+00  0.00000000E+00
  0.00000000E+00  0.00000000E+00  0.00000000E+00
  0.00000000E+00  0.00000000E+00  0.00000000E+00
  0.00000000E+00  0.00000000E+00  0.00000000E+00
  0.00000000E+00  0.00000000E+00  0.00000000E+00
  0.00000000E+00  0.00000000E+00  0.00000000E+00
