  36  36   0   0
  0.3666455E+02  0.7700375E-09  0.7700375E-09  0.2226000E-08  0.5000000E-15
  1.000000000000000E-004
  CAR 
 unknown system                          
     10.28706679    -10.65818271  301     -0.24872108      1.00000000
    -10.658  0.0000E+00  0.0000E+00
    -10.588  0.0000E+00  0.0000E+00
    -10.519  0.0000E+00  0.0000E+00
    -10.449  0.0000E+00  0.0000E+00
    -10.379  0.0000E+00  0.0000E+00
    -10.309  0.1379E-26  0.9630E-28
    -10.239  0.3384E-24  0.2372E-25
    -10.169  0.6483E-22  0.4550E-23
    -10.100  0.9660E-20  0.6790E-21
    -10.030  0.1118E-17  0.7876E-19
     -9.960  0.1005E-15  0.7095E-17
     -9.890  0.6999E-14  0.4958E-15
     -9.820  0.3780E-12  0.2689E-13
     -9.751  0.1574E-10  0.1126E-11
     -9.681  0.5047E-09  0.3636E-10
     -9.611  0.1242E-07  0.9037E-09
     -9.541  0.2336E-06  0.1722E-07
     -9.471  0.3335E-05  0.2501E-06
     -9.401  0.3580E-04  0.2750E-05
     -9.332  0.2848E-03  0.2263E-04
     -9.262  0.1638E-02  0.1370E-03
     -9.192  0.6481E-02  0.5895E-03
     -9.122  0.1555E-01  0.1675E-02
     -9.052  0.1095E-01  0.2440E-02
     -8.983 -0.5820E-01 -0.1624E-02
     -8.913 -0.1909E+00 -0.1495E-01
     -8.843 -0.1267E+00 -0.2380E-01
     -8.773  0.5702E+00  0.1601E-01
     -8.703  0.1762E+01  0.1391E+00
     -8.633  0.2357E+01  0.3037E+00
     -8.564  0.1661E+01  0.4196E+00
     -8.494  0.8951E+00  0.4821E+00
     -8.424  0.1875E+01  0.6130E+00
     -8.354  0.4073E+01  0.8974E+00
     -8.284  0.4847E+01  0.1236E+01
     -8.215  0.3209E+01  0.1460E+01
     -8.145  0.1308E+01  0.1551E+01
     -8.075  0.1154E+01  0.1632E+01
     -8.005  0.1898E+01  0.1764E+01
     -7.935  0.1779E+01  0.1888E+01
     -7.865  0.1230E+01  0.1974E+01
     -7.796  0.2064E+01  0.2118E+01
     -7.726  0.4022E+01  0.2399E+01
     -7.656  0.4604E+01  0.2721E+01
     -7.586  0.3053E+01  0.2934E+01
     -7.516  0.1906E+01  0.3067E+01
     -7.447  0.3020E+01  0.3278E+01
     -7.377  0.4569E+01  0.3597E+01
     -7.307  0.4112E+01  0.3884E+01
     -7.237  0.2392E+01  0.4051E+01
     -7.167  0.1509E+01  0.4156E+01
     -7.097  0.1351E+01  0.4250E+01
     -7.028  0.1030E+01  0.4322E+01
     -6.958  0.2197E+01  0.4476E+01
     -6.888  0.6668E+01  0.4941E+01
     -6.818  0.1139E+02  0.5736E+01
     -6.748  0.1125E+02  0.6522E+01
     -6.679  0.7135E+01  0.7020E+01
     -6.609  0.4812E+01  0.7356E+01
     -6.539  0.5758E+01  0.7758E+01
     -6.469  0.6129E+01  0.8186E+01
     -6.399  0.4437E+01  0.8496E+01
     -6.329  0.3260E+01  0.8723E+01
     -6.260  0.3583E+01  0.8973E+01
     -6.190  0.3844E+01  0.9242E+01
     -6.120  0.4342E+01  0.9545E+01
     -6.050  0.6823E+01  0.1002E+02
     -5.980  0.1006E+02  0.1072E+02
     -5.911  0.1069E+02  0.1147E+02
     -5.841  0.7914E+01  0.1202E+02
     -5.771  0.4632E+01  0.1235E+02
     -5.701  0.4403E+01  0.1265E+02
     -5.631  0.7493E+01  0.1318E+02
     -5.562  0.1027E+02  0.1389E+02
     -5.492  0.1010E+02  0.1460E+02
     -5.422  0.8730E+01  0.1521E+02
     -5.352  0.8682E+01  0.1581E+02
     -5.282  0.9757E+01  0.1650E+02
     -5.212  0.1068E+02  0.1724E+02
     -5.143  0.1137E+02  0.1803E+02
     -5.073  0.1314E+02  0.1895E+02
     -5.003  0.1775E+02  0.2019E+02
     -4.933  0.2440E+02  0.2190E+02
     -4.863  0.2810E+02  0.2386E+02
     -4.794  0.2624E+02  0.2569E+02
     -4.724  0.2465E+02  0.2741E+02
     -4.654  0.2944E+02  0.2947E+02
     -4.584  0.3740E+02  0.3208E+02
     -4.514  0.4206E+02  0.3501E+02
     -4.444  0.4348E+02  0.3805E+02
     -4.375  0.4705E+02  0.4133E+02
     -4.305  0.5744E+02  0.4534E+02
     -4.235  0.7370E+02  0.5049E+02
     -4.165  0.8718E+02  0.5658E+02
     -4.095  0.8929E+02  0.6281E+02
     -4.026  0.8172E+02  0.6852E+02
     -3.956  0.7286E+02  0.7360E+02
     -3.886  0.6685E+02  0.7827E+02
     -3.816  0.6284E+02  0.8266E+02
     -3.746  0.6201E+02  0.8699E+02
     -3.676  0.6727E+02  0.9168E+02
     -3.607  0.7634E+02  0.9701E+02
     -3.537  0.8380E+02  0.1029E+03
     -3.467  0.9084E+02  0.1092E+03
     -3.397  0.1016E+03  0.1163E+03
     -3.327  0.1102E+03  0.1240E+03
     -3.258  0.1063E+03  0.1314E+03
     -3.188  0.9487E+02  0.1380E+03
     -3.118  0.9559E+02  0.1447E+03
     -3.048  0.1199E+03  0.1531E+03
     -2.978  0.1534E+03  0.1638E+03
     -2.908  0.1661E+03  0.1754E+03
     -2.839  0.1456E+03  0.1856E+03
     -2.769  0.1134E+03  0.1935E+03
     -2.699  0.1016E+03  0.2006E+03
     -2.629  0.1191E+03  0.2089E+03
     -2.559  0.1481E+03  0.2192E+03
     -2.490  0.1653E+03  0.2308E+03
     -2.420  0.1613E+03  0.2420E+03
     -2.350  0.1483E+03  0.2524E+03
     -2.280  0.1465E+03  0.2626E+03
     -2.210  0.1582E+03  0.2736E+03
     -2.140  0.1672E+03  0.2853E+03
     -2.071  0.1686E+03  0.2971E+03
     -2.001  0.1777E+03  0.3095E+03
     -1.931  0.2005E+03  0.3235E+03
     -1.861  0.2188E+03  0.3388E+03
     -1.791  0.2109E+03  0.3535E+03
     -1.722  0.1717E+03  0.3655E+03
     -1.652  0.1126E+03  0.3733E+03
     -1.582  0.5727E+02  0.3773E+03
     -1.512  0.2580E+02  0.3791E+03
     -1.442  0.1820E+02  0.3804E+03
     -1.372  0.1932E+02  0.3818E+03
     -1.303  0.1786E+02  0.3830E+03
     -1.233  0.1327E+02  0.3839E+03
     -1.163  0.9163E+01  0.3846E+03
     -1.093  0.7853E+01  0.3851E+03
     -1.023  0.9988E+01  0.3858E+03
     -0.954  0.1427E+02  0.3868E+03
     -0.884  0.1744E+02  0.3880E+03
     -0.814  0.1727E+02  0.3892E+03
     -0.744  0.1486E+02  0.3903E+03
     -0.674  0.1285E+02  0.3912E+03
     -0.604  0.1244E+02  0.3920E+03
     -0.535  0.1249E+02  0.3929E+03
     -0.465  0.1155E+02  0.3937E+03
     -0.395  0.1034E+02  0.3944E+03
     -0.325  0.1039E+02  0.3952E+03
     -0.255  0.1082E+02  0.3959E+03
     -0.186  0.9684E+01  0.3966E+03
     -0.116  0.8357E+01  0.3972E+03
     -0.046  0.1041E+02  0.3979E+03
      0.024  0.1540E+02  0.3990E+03
      0.094  0.1838E+02  0.4003E+03
      0.164  0.1661E+02  0.4014E+03
      0.233  0.1261E+02  0.4023E+03
      0.303  0.9736E+01  0.4030E+03
      0.373  0.8912E+01  0.4036E+03
      0.443  0.9395E+01  0.4043E+03
      0.513  0.1009E+02  0.4050E+03
      0.582  0.1043E+02  0.4057E+03
      0.652  0.1081E+02  0.4065E+03
      0.722  0.1190E+02  0.4073E+03
      0.792  0.1367E+02  0.4082E+03
      0.862  0.1540E+02  0.4093E+03
      0.932  0.1618E+02  0.4105E+03
      1.001  0.1511E+02  0.4115E+03
      1.071  0.1208E+02  0.4123E+03
      1.141  0.8065E+01  0.4129E+03
      1.211  0.4697E+01  0.4132E+03
      1.281  0.4108E+01  0.4135E+03
      1.350  0.7513E+01  0.4141E+03
      1.420  0.1220E+02  0.4149E+03
      1.490  0.1311E+02  0.4158E+03
      1.560  0.9493E+01  0.4165E+03
      1.630  0.7085E+01  0.4170E+03
      1.700  0.1095E+02  0.4177E+03
      1.769  0.1840E+02  0.4190E+03
      1.839  0.2238E+02  0.4206E+03
      1.909  0.2053E+02  0.4220E+03
      1.979  0.1600E+02  0.4231E+03
      2.049  0.1094E+02  0.4239E+03
      2.118  0.5676E+01  0.4243E+03
      2.188  0.2745E+01  0.4245E+03
      2.258  0.5765E+01  0.4249E+03
      2.328  0.1389E+02  0.4259E+03
      2.398  0.2105E+02  0.4273E+03
      2.468  0.2146E+02  0.4288E+03
      2.537  0.1525E+02  0.4299E+03
      2.607  0.8588E+01  0.4305E+03
      2.677  0.7397E+01  0.4310E+03
      2.747  0.1078E+02  0.4318E+03
      2.817  0.1361E+02  0.4327E+03
      2.886  0.1437E+02  0.4337E+03
      2.956  0.1511E+02  0.4348E+03
      3.026  0.1556E+02  0.4359E+03
      3.096  0.1385E+02  0.4368E+03
      3.166  0.1139E+02  0.4376E+03
      3.235  0.1191E+02  0.4385E+03
      3.305  0.1659E+02  0.4396E+03
      3.375  0.2192E+02  0.4411E+03
      3.445  0.2232E+02  0.4427E+03
      3.515  0.1635E+02  0.4438E+03
      3.585  0.1038E+02  0.4446E+03
      3.654  0.1271E+02  0.4455E+03
      3.724  0.2316E+02  0.4471E+03
      3.794  0.3252E+02  0.4493E+03
      3.864  0.3272E+02  0.4516E+03
      3.934  0.2435E+02  0.4533E+03
      4.003  0.1469E+02  0.4543E+03
      4.073  0.1041E+02  0.4551E+03
      4.143  0.1185E+02  0.4559E+03
      4.213  0.1453E+02  0.4569E+03
      4.283  0.1554E+02  0.4580E+03
      4.353  0.1469E+02  0.4590E+03
      4.422  0.1199E+02  0.4599E+03
      4.492  0.8974E+01  0.4605E+03
      4.562  0.9051E+01  0.4611E+03
      4.632  0.1326E+02  0.4620E+03
      4.702  0.1879E+02  0.4634E+03
      4.771  0.2189E+02  0.4649E+03
      4.841  0.2024E+02  0.4663E+03
      4.911  0.1490E+02  0.4673E+03
      4.981  0.1001E+02  0.4680E+03
      5.051  0.8492E+01  0.4686E+03
      5.121  0.1064E+02  0.4694E+03
      5.190  0.1651E+02  0.4705E+03
      5.260  0.2419E+02  0.4722E+03
      5.330  0.2734E+02  0.4741E+03
      5.400  0.2139E+02  0.4756E+03
      5.470  0.1076E+02  0.4764E+03
      5.539  0.4455E+01  0.4767E+03
      5.609  0.5883E+01  0.4771E+03
      5.679  0.1027E+02  0.4778E+03
      5.749  0.1137E+02  0.4786E+03
      5.819  0.8084E+01  0.4792E+03
      5.889  0.3744E+01  0.4794E+03
      5.958  0.1070E+01  0.4795E+03
      6.028  0.1054E+00  0.4795E+03
      6.098 -0.1048E+00  0.4795E+03
      6.168 -0.9377E-01  0.4795E+03
      6.238 -0.2949E-01  0.4795E+03
      6.307  0.1251E-01  0.4795E+03
      6.377  0.1786E-01  0.4795E+03
      6.447  0.9350E-02  0.4795E+03
      6.517  0.3009E-02  0.4795E+03
      6.587  0.6651E-03  0.4795E+03
      6.657  0.1058E-03  0.4795E+03
      6.726  0.1240E-04  0.4795E+03
      6.796  0.1089E-05  0.4795E+03
      6.866  0.7228E-07  0.4795E+03
      6.936  0.3676E-08  0.4795E+03
      7.006  0.7433E-09  0.4795E+03
      7.075  0.1381E-07  0.4795E+03
      7.145  0.2416E-06  0.4795E+03
      7.215  0.3203E-05  0.4795E+03
      7.285  0.3183E-04  0.4795E+03
      7.355  0.2332E-03  0.4795E+03
      7.425  0.1223E-02  0.4795E+03
      7.494  0.4325E-02  0.4795E+03
      7.564  0.8638E-02  0.4795E+03
      7.634  0.7875E-03  0.4795E+03
      7.704 -0.4530E-01  0.4795E+03
      7.774 -0.1054E+00  0.4795E+03
      7.843 -0.1180E-01  0.4795E+03
      7.913  0.4166E+00  0.4795E+03
      7.983  0.9875E+00  0.4796E+03
      8.053  0.1176E+01  0.4797E+03
      8.123  0.8892E+00  0.4797E+03
      8.193  0.7174E+00  0.4798E+03
      8.262  0.9831E+00  0.4799E+03
      8.332  0.1184E+01  0.4799E+03
      8.402  0.8532E+00  0.4800E+03
      8.472  0.2726E+00  0.4800E+03
      8.542 -0.6492E-01  0.4800E+03
      8.611 -0.9489E-01  0.4800E+03
      8.681 -0.2879E-01  0.4800E+03
      8.751  0.5547E-02  0.4800E+03
      8.821  0.7787E-02  0.4800E+03
      8.891  0.3242E-02  0.4800E+03
      8.961  0.8189E-03  0.4800E+03
      9.030  0.1424E-03  0.4800E+03
      9.100  0.1790E-04  0.4800E+03
      9.170  0.1668E-05  0.4800E+03
      9.240  0.1168E-06  0.4800E+03
      9.310  0.6212E-08  0.4800E+03
      9.379  0.2524E-09  0.4800E+03
      9.449  0.7869E-11  0.4800E+03
      9.519  0.1888E-12  0.4800E+03
      9.589  0.3578E-14  0.4800E+03
      9.659  0.0000E+00  0.4800E+03
      9.729  0.0000E+00  0.4800E+03
      9.798  0.0000E+00  0.4800E+03
      9.868  0.0000E+00  0.4800E+03
      9.938  0.0000E+00  0.4800E+03
     10.008  0.0000E+00  0.4800E+03
     10.078  0.0000E+00  0.4800E+03
     10.147  0.0000E+00  0.4800E+03
     10.217  0.0000E+00  0.4800E+03
     10.287  0.0000E+00  0.4800E+03
