   36   36    1    1
  0.3666455E+02  0.7700375E-09  0.7700375E-09  0.2226000E-08  0.5000000E-15
  1.000000000000000E-004
  CAR 
 unknown system                          
    396      8    240
 
  0.1250000E+00  0.1250000E+00  0.0000000E+00  0.1250000E+00
    1       -8.658183   1.000000
    2       -7.111783   1.000000
    3       -6.833790   1.000000
    4       -6.827613   1.000000
    5       -5.849659   1.000000
    6       -5.843543   1.000000
    7       -5.597108   1.000000
    8       -5.590315   1.000000
    9       -5.396356   1.000000
   10       -5.217128   1.000000
   11       -5.084335   1.000000
   12       -5.077737   1.000000
   13       -4.865224   1.000000
   14       -4.863068   1.000000
   15       -4.765148   1.000000
   16       -4.683205   1.000000
   17       -4.465406   1.000000
   18       -4.439254   1.000000
   19       -4.429243   1.000000
   20       -4.408770   1.000000
   21       -4.401259   1.000000
   22       -4.355886   1.000000
   23       -4.285482   1.000000
   24       -4.226099   1.000000
   25       -4.224728   1.000000
   26       -4.163450   1.000000
   27       -4.150108   1.000000
   28       -4.145995   1.000000
   29       -4.111892   1.000000
   30       -4.106697   1.000000
   31       -4.100713   1.000000
   32       -4.090464   1.000000
   33       -4.083150   1.000000
   34       -4.014982   1.000000
   35       -4.009500   1.000000
   36       -4.006633   1.000000
   37       -4.000955   1.000000
   38       -3.991282   1.000000
   39       -3.910563   1.000000
   40       -3.906654   1.000000
   41       -3.859494   1.000000
   42       -3.842802   1.000000
   43       -3.818313   1.000000
   44       -3.811696   1.000000
   45       -3.725204   1.000000
   46       -3.614155   1.000000
   47       -3.610816   1.000000
   48       -3.600737   1.000000
   49       -3.594931   1.000000
   50       -3.561968   1.000000
   51       -3.534824   1.000000
   52       -3.513073   1.000000
   53       -3.506618   1.000000
   54       -3.504365   1.000000
   55       -3.463106   1.000000
   56       -3.396737   1.000000
   57       -3.395398   1.000000
   58       -3.375521   1.000000
   59       -3.333408   1.000000
   60       -3.330644   1.000000
   61       -3.327634   1.000000
   62       -3.306021   1.000000
   63       -3.283469   1.000000
   64       -3.278089   1.000000
   65       -3.274841   1.000000
   66       -3.257864   1.000000
   67       -3.250992   1.000000
   68       -3.246078   1.000000
   69       -3.195295   1.000000
   70       -3.192106   1.000000
   71       -3.187455   1.000000
   72       -3.089829   1.000000
   73       -3.080640   1.000000
   74       -3.070373   1.000000
   75       -3.062052   1.000000
   76       -3.035320   1.000000
   77       -3.021788   1.000000
   78       -3.016573   1.000000
   79       -2.981677   1.000000
   80       -2.976647   1.000000
   81       -2.967455   1.000000
   82       -2.959327   1.000000
   83       -2.954843   1.000000
   84       -2.949574   1.000000
   85       -2.931878   1.000000
   86       -2.928520   1.000000
   87       -2.923222   1.000000
   88       -2.917587   1.000000
   89       -2.914324   1.000000
   90       -2.904923   1.000000
   91       -2.896473   1.000000
   92       -2.887243   1.000000
   93       -2.877296   1.000000
   94       -2.864404   1.000000
   95       -2.848738   1.000000
   96       -2.844961   1.000000
   97       -2.799020   1.000000
   98       -2.795094   1.000000
   99       -2.750867   1.000000
  100       -2.697329   1.000000
  101       -2.696181   1.000000
  102       -2.660504   1.000000
  103       -2.656710   1.000000
  104       -2.554374   1.000000
  105       -2.542441   1.000000
  106       -2.536136   1.000000
  107       -2.533124   1.000000
  108       -2.503990   1.000000
  109       -2.497291   1.000000
  110       -2.486123   1.000000
  111       -2.480396   1.000000
  112       -2.465898   1.000000
  113       -2.438145   1.000000
  114       -2.434180   1.000000
  115       -2.432808   1.000000
  116       -2.429770   1.000000
  117       -2.411446   1.000000
  118       -2.403267   1.000000
  119       -2.398383   1.000000
  120       -2.395355   1.000000
  121       -2.381017   1.000000
  122       -2.376908   1.000000
  123       -2.354516   1.000000
  124       -2.335104   1.000000
  125       -2.328576   1.000000
  126       -2.326196   1.000000
  127       -2.321125   1.000000
  128       -2.307450   1.000000
  129       -2.306466   1.000000
  130       -2.299703   1.000000
  131       -2.297729   1.000000
  132       -2.294364   1.000000
  133       -2.290086   1.000000
  134       -2.289067   1.000000
  135       -2.279163   1.000000
  136       -2.276074   1.000000
  137       -2.227879   1.000000
  138       -2.210788   1.000000
  139       -2.177145   1.000000
  140       -2.152724   1.000000
  141       -2.143756   1.000000
  142       -2.138084   1.000000
  143       -2.123507   1.000000
  144       -2.113691   1.000000
  145       -2.110829   1.000000
  146       -2.107617   1.000000
  147       -2.096294   1.000000
  148       -2.093686   1.000000
  149       -2.092411   1.000000
  150       -2.091908   1.000000
  151       -2.061053   1.000000
  152       -2.059333   1.000000
  153       -2.011545   1.000000
  154       -1.979544   1.000000
  155       -1.977423   1.000000
  156       -1.969318   1.000000
  157       -1.967391   1.000000
  158       -1.957400   1.000000
  159       -1.953337   1.000000
  160       -1.942783   1.000000
  161       -1.936957   1.000000
  162       -1.934565   1.000000
  163       -1.932922   1.000000
  164       -1.931693   1.000000
  165       -1.930546   1.000000
  166       -1.922725   1.000000
  167       -1.917367   1.000000
  168       -1.916180   1.000000
  169       -1.892345   1.000000
  170       -1.891267   1.000000
  171       -1.855111   1.000000
  172       -1.852547   1.000000
  173       -1.851182   1.000000
  174       -1.847029   1.000000
  175       -1.843974   1.000000
  176       -1.804925   1.000000
  177       -1.769905   1.000000
  178       -1.769670   1.000000
  179       -1.768320   1.000000
  180       -1.766706   1.000000
  181       -1.758398   1.000000
  182       -1.750369   1.000000
  183       -1.749103   1.000000
  184       -1.737849   1.000000
  185       -1.717741   1.000000
  186       -1.706718   1.000000
  187       -1.704604   1.000000
  188       -1.703743   1.000000
  189       -1.698078   1.000000
  190       -1.695608   1.000000
  191       -1.691736   1.000000
  192       -1.645131   1.000000
  193       -1.224053   1.000000
  194       -1.220723   1.000000
  195       -0.965147   0.999987
  196       -0.963623   0.999987
  197       -0.885850   0.999880
  198       -0.620366   0.996095
  199       -0.499505   1.032677
  200       -0.271970   0.621687
  201       -0.267900   0.600719
  202        0.000749  -0.033307
  203        0.006547  -0.030520
  204        0.861621   0.000000
  205        0.926452   0.000000
  206        1.047997   0.000000
  207        1.421388   0.000000
  208        1.428538   0.000000
  209        1.711045   0.000000
  210        1.870809   0.000000
  211        1.872564   0.000000
  212        1.971477   0.000000
  213        1.983471   0.000000
  214        3.186263   0.000000
  215        3.236123   0.000000
  216        3.242309   0.000000
  217        3.323321   0.000000
  218        3.371805   0.000000
  219        3.394346   0.000000
  220        3.402248   0.000000
  221        3.731158   0.000000
  222        3.769897   0.000000
  223        3.778006   0.000000
  224        3.781229   0.000000
  225        3.783978   0.000000
  226        3.909229   0.000000
  227        3.912078   0.000000
  228        4.617571   0.000000
  229        4.619370   0.000000
  230        4.788025   0.000000
  231        4.789029   0.000000
  232        4.925008   0.000000
  233        4.927557   0.000000
  234        5.289995   0.000000
  235        5.292637   0.000000
  236        5.338149   0.000000
  237        5.346596   0.000000
  238        5.354834   0.000000
  239        5.410614   0.000000
  240        8.009822   0.000000
 
  0.3750000E+00  0.1250000E+00  0.0000000E+00  0.1250000E+00
    1       -8.333662   1.000000
    2       -7.705538   1.000000
    3       -6.812047   1.000000
    4       -6.545313   1.000000
    5       -6.260156   1.000000
    6       -6.024530   1.000000
    7       -5.606939   1.000000
    8       -5.340008   1.000000
    9       -5.215690   1.000000
   10       -5.072627   1.000000
   11       -4.977671   1.000000
   12       -4.907508   1.000000
   13       -4.880996   1.000000
   14       -4.870415   1.000000
   15       -4.626884   1.000000
   16       -4.600034   1.000000
   17       -4.593967   1.000000
   18       -4.537357   1.000000
   19       -4.529763   1.000000
   20       -4.491387   1.000000
   21       -4.376681   1.000000
   22       -4.333878   1.000000
   23       -4.319543   1.000000
   24       -4.288850   1.000000
   25       -4.246333   1.000000
   26       -4.222078   1.000000
   27       -4.203846   1.000000
   28       -4.191830   1.000000
   29       -4.185079   1.000000
   30       -4.158592   1.000000
   31       -4.133453   1.000000
   32       -4.124058   1.000000
   33       -4.041804   1.000000
   34       -4.032406   1.000000
   35       -3.955181   1.000000
   36       -3.943427   1.000000
   37       -3.919279   1.000000
   38       -3.914043   1.000000
   39       -3.855373   1.000000
   40       -3.847732   1.000000
   41       -3.831047   1.000000
   42       -3.805006   1.000000
   43       -3.786945   1.000000
   44       -3.730088   1.000000
   45       -3.727461   1.000000
   46       -3.716323   1.000000
   47       -3.664465   1.000000
   48       -3.625500   1.000000
   49       -3.617399   1.000000
   50       -3.595077   1.000000
   51       -3.594024   1.000000
   52       -3.528524   1.000000
   53       -3.496897   1.000000
   54       -3.478165   1.000000
   55       -3.461103   1.000000
   56       -3.449300   1.000000
   57       -3.432115   1.000000
   58       -3.419461   1.000000
   59       -3.382998   1.000000
   60       -3.373164   1.000000
   61       -3.354281   1.000000
   62       -3.350031   1.000000
   63       -3.336120   1.000000
   64       -3.335145   1.000000
   65       -3.313182   1.000000
   66       -3.306455   1.000000
   67       -3.287271   1.000000
   68       -3.221104   1.000000
   69       -3.180761   1.000000
   70       -3.154138   1.000000
   71       -3.136467   1.000000
   72       -3.134700   1.000000
   73       -3.119479   1.000000
   74       -3.101166   1.000000
   75       -3.058367   1.000000
   76       -3.033078   1.000000
   77       -3.012405   1.000000
   78       -3.007907   1.000000
   79       -2.998487   1.000000
   80       -2.993088   1.000000
   81       -2.987359   1.000000
   82       -2.982404   1.000000
   83       -2.976543   1.000000
   84       -2.964281   1.000000
   85       -2.956824   1.000000
   86       -2.937935   1.000000
   87       -2.928352   1.000000
   88       -2.923568   1.000000
   89       -2.901779   1.000000
   90       -2.892028   1.000000
   91       -2.887084   1.000000
   92       -2.875199   1.000000
   93       -2.860012   1.000000
   94       -2.826546   1.000000
   95       -2.817321   1.000000
   96       -2.789118   1.000000
   97       -2.767346   1.000000
   98       -2.759422   1.000000
   99       -2.706207   1.000000
  100       -2.696451   1.000000
  101       -2.656622   1.000000
  102       -2.652081   1.000000
  103       -2.640215   1.000000
  104       -2.636979   1.000000
  105       -2.630021   1.000000
  106       -2.627800   1.000000
  107       -2.609084   1.000000
  108       -2.604744   1.000000
  109       -2.594862   1.000000
  110       -2.573756   1.000000
  111       -2.558308   1.000000
  112       -2.546533   1.000000
  113       -2.521320   1.000000
  114       -2.515809   1.000000
  115       -2.495611   1.000000
  116       -2.491471   1.000000
  117       -2.487378   1.000000
  118       -2.483456   1.000000
  119       -2.465090   1.000000
  120       -2.452352   1.000000
  121       -2.437936   1.000000
  122       -2.432832   1.000000
  123       -2.407089   1.000000
  124       -2.404057   1.000000
  125       -2.395490   1.000000
  126       -2.338425   1.000000
  127       -2.311168   1.000000
  128       -2.288919   1.000000
  129       -2.281827   1.000000
  130       -2.274741   1.000000
  131       -2.267810   1.000000
  132       -2.259486   1.000000
  133       -2.237374   1.000000
  134       -2.226174   1.000000
  135       -2.221641   1.000000
  136       -2.218252   1.000000
  137       -2.204986   1.000000
  138       -2.201000   1.000000
  139       -2.188939   1.000000
  140       -2.178993   1.000000
  141       -2.169772   1.000000
  142       -2.165993   1.000000
  143       -2.160265   1.000000
  144       -2.155168   1.000000
  145       -2.135980   1.000000
  146       -2.130231   1.000000
  147       -2.114376   1.000000
  148       -2.105152   1.000000
  149       -2.074161   1.000000
  150       -2.068352   1.000000
  151       -2.064449   1.000000
  152       -2.031919   1.000000
  153       -2.016450   1.000000
  154       -2.012346   1.000000
  155       -1.997601   1.000000
  156       -1.994264   1.000000
  157       -1.964381   1.000000
  158       -1.955948   1.000000
  159       -1.935511   1.000000
  160       -1.931739   1.000000
  161       -1.930837   1.000000
  162       -1.923291   1.000000
  163       -1.914137   1.000000
  164       -1.911517   1.000000
  165       -1.907491   1.000000
  166       -1.895923   1.000000
  167       -1.874668   1.000000
  168       -1.873235   1.000000
  169       -1.872522   1.000000
  170       -1.869520   1.000000
  171       -1.859300   1.000000
  172       -1.848910   1.000000
  173       -1.845670   1.000000
  174       -1.841752   1.000000
  175       -1.826599   1.000000
  176       -1.805178   1.000000
  177       -1.787609   1.000000
  178       -1.779454   1.000000
  179       -1.766498   1.000000
  180       -1.762205   1.000000
  181       -1.753683   1.000000
  182       -1.726332   1.000000
  183       -1.710051   1.000000
  184       -1.709345   1.000000
  185       -1.693808   1.000000
  186       -1.671438   1.000000
  187       -1.617876   1.000000
  188       -1.578936   1.000000
  189       -1.557079   1.000000
  190       -1.496295   1.000000
  191       -1.455609   1.000000
  192       -1.389591   1.000000
  193       -1.320009   1.000000
  194       -0.966956   0.999988
  195       -0.876917   0.999849
  196       -0.743247   0.997748
  197       -0.571507   1.003833
  198       -0.155101   0.079995
  199        0.034741  -0.017478
  200        0.044696  -0.013404
  201        0.124271   0.003999
  202        0.225488   0.002967
  203        0.367758   0.000202
  204        0.556953   0.000001
  205        0.799459   0.000000
  206        0.998254   0.000000
  207        1.374755   0.000000
  208        1.481456   0.000000
  209        1.787183   0.000000
  210        1.795929   0.000000
  211        2.049012   0.000000
  212        2.288591   0.000000
  213        2.346524   0.000000
  214        2.384351   0.000000
  215        2.459153   0.000000
  216        2.484084   0.000000
  217        2.744701   0.000000
  218        2.808194   0.000000
  219        2.934419   0.000000
  220        3.015547   0.000000
  221        3.459389   0.000000
  222        3.476494   0.000000
  223        3.648133   0.000000
  224        3.731414   0.000000
  225        3.876760   0.000000
  226        3.901015   0.000000
  227        4.117925   0.000000
  228        4.129028   0.000000
  229        4.203968   0.000000
  230        4.294603   0.000000
  231        4.388834   0.000000
  232        4.737456   0.000000
  233        4.761240   0.000000
  234        4.828063   0.000000
  235        5.052801   0.000000
  236        5.097730   0.000000
  237        5.220412   0.000000
  238        5.454330   0.000000
  239        5.641681   0.000000
  240        5.766838   0.000000
 
 -0.3750000E+00  0.1250000E+00  0.0000000E+00  0.1250000E+00
    1       -8.333661   1.000000
    2       -7.705540   1.000000
    3       -6.812033   1.000000
    4       -6.545358   1.000000
    5       -6.260147   1.000000
    6       -6.024504   1.000000
    7       -5.606924   1.000000
    8       -5.340010   1.000000
    9       -5.215722   1.000000
   10       -5.072652   1.000000
   11       -4.977648   1.000000
   12       -4.907424   1.000000
   13       -4.881318   1.000000
   14       -4.870100   1.000000
   15       -4.626867   1.000000
   16       -4.599906   1.000000
   17       -4.594112   1.000000
   18       -4.537178   1.000000
   19       -4.529481   1.000000
   20       -4.491962   1.000000
   21       -4.376677   1.000000
   22       -4.333805   1.000000
   23       -4.319503   1.000000
   24       -4.288840   1.000000
   25       -4.246312   1.000000
   26       -4.222329   1.000000
   27       -4.203784   1.000000
   28       -4.191924   1.000000
   29       -4.184727   1.000000
   30       -4.158887   1.000000
   31       -4.133640   1.000000
   32       -4.123732   1.000000
   33       -4.042284   1.000000
   34       -4.031883   1.000000
   35       -3.955245   1.000000
   36       -3.943602   1.000000
   37       -3.919166   1.000000
   38       -3.913883   1.000000
   39       -3.855831   1.000000
   40       -3.848059   1.000000
   41       -3.830825   1.000000
   42       -3.804327   1.000000
   43       -3.787178   1.000000
   44       -3.730014   1.000000
   45       -3.727359   1.000000
   46       -3.716274   1.000000
   47       -3.664611   1.000000
   48       -3.625757   1.000000
   49       -3.617503   1.000000
   50       -3.594815   1.000000
   51       -3.593820   1.000000
   52       -3.528859   1.000000
   53       -3.497399   1.000000
   54       -3.477904   1.000000
   55       -3.461044   1.000000
   56       -3.449338   1.000000
   57       -3.431888   1.000000
   58       -3.419286   1.000000
   59       -3.383229   1.000000
   60       -3.373271   1.000000
   61       -3.354091   1.000000
   62       -3.349417   1.000000
   63       -3.336651   1.000000
   64       -3.335238   1.000000
   65       -3.313112   1.000000
   66       -3.306614   1.000000
   67       -3.287024   1.000000
   68       -3.220842   1.000000
   69       -3.180681   1.000000
   70       -3.153925   1.000000
   71       -3.136651   1.000000
   72       -3.134695   1.000000
   73       -3.119543   1.000000
   74       -3.100960   1.000000
   75       -3.058716   1.000000
   76       -3.032999   1.000000
   77       -3.012668   1.000000
   78       -3.007771   1.000000
   79       -2.997705   1.000000
   80       -2.993426   1.000000
   81       -2.988246   1.000000
   82       -2.983132   1.000000
   83       -2.977616   1.000000
   84       -2.962761   1.000000
   85       -2.956505   1.000000
   86       -2.937403   1.000000
   87       -2.927982   1.000000
   88       -2.923976   1.000000
   89       -2.902261   1.000000
   90       -2.891456   1.000000
   91       -2.886798   1.000000
   92       -2.875337   1.000000
   93       -2.860340   1.000000
   94       -2.826857   1.000000
   95       -2.817417   1.000000
   96       -2.789005   1.000000
   97       -2.767411   1.000000
   98       -2.759035   1.000000
   99       -2.706238   1.000000
  100       -2.696690   1.000000
  101       -2.656824   1.000000
  102       -2.652593   1.000000
  103       -2.639081   1.000000
  104       -2.636614   1.000000
  105       -2.630084   1.000000
  106       -2.628417   1.000000
  107       -2.609468   1.000000
  108       -2.603606   1.000000
  109       -2.594518   1.000000
  110       -2.573992   1.000000
  111       -2.559093   1.000000
  112       -2.546454   1.000000
  113       -2.521983   1.000000
  114       -2.515996   1.000000
  115       -2.495292   1.000000
  116       -2.491602   1.000000
  117       -2.487825   1.000000
  118       -2.482660   1.000000
  119       -2.465629   1.000000
  120       -2.452266   1.000000
  121       -2.438160   1.000000
  122       -2.432006   1.000000
  123       -2.407427   1.000000
  124       -2.403635   1.000000
  125       -2.395493   1.000000
  126       -2.338526   1.000000
  127       -2.311309   1.000000
  128       -2.289108   1.000000
  129       -2.281919   1.000000
  130       -2.274627   1.000000
  131       -2.266689   1.000000
  132       -2.259497   1.000000
  133       -2.238089   1.000000
  134       -2.224953   1.000000
  135       -2.220778   1.000000
  136       -2.218153   1.000000
  137       -2.205861   1.000000
  138       -2.201456   1.000000
  139       -2.190442   1.000000
  140       -2.179101   1.000000
  141       -2.169325   1.000000
  142       -2.165343   1.000000
  143       -2.160495   1.000000
  144       -2.155926   1.000000
  145       -2.135943   1.000000
  146       -2.129823   1.000000
  147       -2.114245   1.000000
  148       -2.105445   1.000000
  149       -2.073678   1.000000
  150       -2.067953   1.000000
  151       -2.064663   1.000000
  152       -2.032339   1.000000
  153       -2.016900   1.000000
  154       -2.012010   1.000000
  155       -1.997442   1.000000
  156       -1.994182   1.000000
  157       -1.964685   1.000000
  158       -1.955834   1.000000
  159       -1.935593   1.000000
  160       -1.931889   1.000000
  161       -1.930695   1.000000
  162       -1.923349   1.000000
  163       -1.914266   1.000000
  164       -1.911358   1.000000
  165       -1.907316   1.000000
  166       -1.896394   1.000000
  167       -1.874244   1.000000
  168       -1.873435   1.000000
  169       -1.872393   1.000000
  170       -1.869476   1.000000
  171       -1.859327   1.000000
  172       -1.848829   1.000000
  173       -1.845568   1.000000
  174       -1.842052   1.000000
  175       -1.826360   1.000000
  176       -1.805174   1.000000
  177       -1.787695   1.000000
  178       -1.779839   1.000000
  179       -1.766078   1.000000
  180       -1.762254   1.000000
  181       -1.753945   1.000000
  182       -1.726334   1.000000
  183       -1.709965   1.000000
  184       -1.709481   1.000000
  185       -1.693967   1.000000
  186       -1.670505   1.000000
  187       -1.618364   1.000000
  188       -1.578854   1.000000
  189       -1.557026   1.000000
  190       -1.496151   1.000000
  191       -1.455668   1.000000
  192       -1.389560   1.000000
  193       -1.320040   1.000000
  194       -0.966947   0.999988
  195       -0.876890   0.999849
  196       -0.743244   0.997748
  197       -0.571562   1.003818
  198       -0.155063   0.079878
  199        0.035234  -0.017267
  200        0.044477  -0.013490
  201        0.123948   0.003977
  202        0.225478   0.002967
  203        0.367744   0.000202
  204        0.556904   0.000001
  205        0.799498   0.000000
  206        0.998259   0.000000
  207        1.374337   0.000000
  208        1.481556   0.000000
  209        1.787524   0.000000
  210        1.796068   0.000000
  211        2.048962   0.000000
  212        2.288610   0.000000
  213        2.346415   0.000000
  214        2.384789   0.000000
  215        2.459370   0.000000
  216        2.483474   0.000000
  217        2.744719   0.000000
  218        2.810025   0.000000
  219        2.931873   0.000000
  220        3.015654   0.000000
  221        3.459195   0.000000
  222        3.476872   0.000000
  223        3.648182   0.000000
  224        3.731310   0.000000
  225        3.876918   0.000000
  226        3.901021   0.000000
  227        4.118415   0.000000
  228        4.128635   0.000000
  229        4.203793   0.000000
  230        4.294605   0.000000
  231        4.388856   0.000000
  232        4.737137   0.000000
  233        4.761016   0.000000
  234        4.828010   0.000000
  235        5.052318   0.000000
  236        5.094905   0.000000
  237        5.219796   0.000000
  238        5.298797   0.000000
  239        5.611370   0.000000
  240        5.704779   0.000000
 
 -0.1250000E+00  0.1250000E+00  0.0000000E+00  0.1250000E+00
    1       -8.658182   1.000000
    2       -7.111779   1.000000
    3       -6.833149   1.000000
    4       -6.828275   1.000000
    5       -5.849137   1.000000
    6       -5.844023   1.000000
    7       -5.598054   1.000000
    8       -5.589427   1.000000
    9       -5.396290   1.000000
   10       -5.217142   1.000000
   11       -5.084971   1.000000
   12       -5.077052   1.000000
   13       -4.864909   1.000000
   14       -4.863434   1.000000
   15       -4.765122   1.000000
   16       -4.683199   1.000000
   17       -4.465434   1.000000
   18       -4.439247   1.000000
   19       -4.429175   1.000000
   20       -4.408692   1.000000
   21       -4.401293   1.000000
   22       -4.356027   1.000000
   23       -4.285505   1.000000
   24       -4.226302   1.000000
   25       -4.224698   1.000000
   26       -4.163389   1.000000
   27       -4.149970   1.000000
   28       -4.146286   1.000000
   29       -4.111274   1.000000
   30       -4.105960   1.000000
   31       -4.100731   1.000000
   32       -4.090660   1.000000
   33       -4.083770   1.000000
   34       -4.015744   1.000000
   35       -4.009604   1.000000
   36       -4.006337   1.000000
   37       -4.000627   1.000000
   38       -3.991373   1.000000
   39       -3.910590   1.000000
   40       -3.906855   1.000000
   41       -3.859169   1.000000
   42       -3.842825   1.000000
   43       -3.818301   1.000000
   44       -3.811795   1.000000
   45       -3.725104   1.000000
   46       -3.613692   1.000000
   47       -3.611252   1.000000
   48       -3.601139   1.000000
   49       -3.594478   1.000000
   50       -3.561833   1.000000
   51       -3.534562   1.000000
   52       -3.513885   1.000000
   53       -3.506768   1.000000
   54       -3.504188   1.000000
   55       -3.463096   1.000000
   56       -3.396819   1.000000
   57       -3.395029   1.000000
   58       -3.375434   1.000000
   59       -3.333753   1.000000
   60       -3.330841   1.000000
   61       -3.327794   1.000000
   62       -3.305501   1.000000
   63       -3.283639   1.000000
   64       -3.278056   1.000000
   65       -3.275157   1.000000
   66       -3.257655   1.000000
   67       -3.250804   1.000000
   68       -3.245799   1.000000
   69       -3.195202   1.000000
   70       -3.192182   1.000000
   71       -3.187377   1.000000
   72       -3.089755   1.000000
   73       -3.080635   1.000000
   74       -3.069292   1.000000
   75       -3.063279   1.000000
   76       -3.035472   1.000000
   77       -3.022175   1.000000
   78       -3.016121   1.000000
   79       -2.981834   1.000000
   80       -2.975476   1.000000
   81       -2.969004   1.000000
   82       -2.957862   1.000000
   83       -2.956145   1.000000
   84       -2.948965   1.000000
   85       -2.932165   1.000000
   86       -2.928115   1.000000
   87       -2.922480   1.000000
   88       -2.917825   1.000000
   89       -2.915241   1.000000
   90       -2.904671   1.000000
   91       -2.896452   1.000000
   92       -2.887782   1.000000
   93       -2.876835   1.000000
   94       -2.863943   1.000000
   95       -2.848732   1.000000
   96       -2.845371   1.000000
   97       -2.799044   1.000000
   98       -2.795486   1.000000
   99       -2.751277   1.000000
  100       -2.697840   1.000000
  101       -2.695405   1.000000
  102       -2.660742   1.000000
  103       -2.656226   1.000000
  104       -2.554739   1.000000
  105       -2.542685   1.000000
  106       -2.534833   1.000000
  107       -2.533709   1.000000
  108       -2.503936   1.000000
  109       -2.496821   1.000000
  110       -2.485947   1.000000
  111       -2.479522   1.000000
  112       -2.466382   1.000000
  113       -2.438315   1.000000
  114       -2.434599   1.000000
  115       -2.433041   1.000000
  116       -2.429877   1.000000
  117       -2.412073   1.000000
  118       -2.402506   1.000000
  119       -2.398176   1.000000
  120       -2.395308   1.000000
  121       -2.381826   1.000000
  122       -2.376726   1.000000
  123       -2.354436   1.000000
  124       -2.336336   1.000000
  125       -2.328274   1.000000
  126       -2.325265   1.000000
  127       -2.320724   1.000000
  128       -2.307435   1.000000
  129       -2.305873   1.000000
  130       -2.300764   1.000000
  131       -2.297748   1.000000
  132       -2.293681   1.000000
  133       -2.289865   1.000000
  134       -2.288158   1.000000
  135       -2.280016   1.000000
  136       -2.276968   1.000000
  137       -2.227755   1.000000
  138       -2.210905   1.000000
  139       -2.177595   1.000000
  140       -2.153134   1.000000
  141       -2.143779   1.000000
  142       -2.137643   1.000000
  143       -2.122271   1.000000
  144       -2.114131   1.000000
  145       -2.111761   1.000000
  146       -2.107848   1.000000
  147       -2.096440   1.000000
  148       -2.093641   1.000000
  149       -2.092837   1.000000
  150       -2.091933   1.000000
  151       -2.060641   1.000000
  152       -2.059033   1.000000
  153       -2.011377   1.000000
  154       -1.979358   1.000000
  155       -1.977655   1.000000
  156       -1.969665   1.000000
  157       -1.966833   1.000000
  158       -1.957478   1.000000
  159       -1.952737   1.000000
  160       -1.943024   1.000000
  161       -1.936632   1.000000
  162       -1.934499   1.000000
  163       -1.932621   1.000000
  164       -1.931865   1.000000
  165       -1.930773   1.000000
  166       -1.922800   1.000000
  167       -1.917259   1.000000
  168       -1.916497   1.000000
  169       -1.892425   1.000000
  170       -1.891255   1.000000
  171       -1.855654   1.000000
  172       -1.852556   1.000000
  173       -1.851528   1.000000
  174       -1.846971   1.000000
  175       -1.843263   1.000000
  176       -1.804883   1.000000
  177       -1.770508   1.000000
  178       -1.768863   1.000000
  179       -1.768062   1.000000
  180       -1.767109   1.000000
  181       -1.758220   1.000000
  182       -1.750481   1.000000
  183       -1.749019   1.000000
  184       -1.737369   1.000000
  185       -1.717720   1.000000
  186       -1.706662   1.000000
  187       -1.704711   1.000000
  188       -1.703897   1.000000
  189       -1.697459   1.000000
  190       -1.695023   1.000000
  191       -1.692939   1.000000
  192       -1.645565   1.000000
  193       -1.224083   1.000000
  194       -1.220544   1.000000
  195       -0.965097   0.999987
  196       -0.963603   0.999987
  197       -0.885914   0.999880
  198       -0.620290   0.996100
  199       -0.499599   1.032632
  200       -0.272193   0.622831
  201       -0.267805   0.600229
  202        0.000801  -0.033282
  203        0.006568  -0.030509
  204        0.861558   0.000000
  205        0.926521   0.000000
  206        1.047889   0.000000
  207        1.421421   0.000000
  208        1.428505   0.000000
  209        1.711178   0.000000
  210        1.870175   0.000000
  211        1.872885   0.000000
  212        1.970588   0.000000
  213        1.984927   0.000000
  214        3.185581   0.000000
  215        3.235871   0.000000
  216        3.243197   0.000000
  217        3.323456   0.000000
  218        3.371381   0.000000
  219        3.394686   0.000000
  220        3.402229   0.000000
  221        3.731356   0.000000
  222        3.770742   0.000000
  223        3.776661   0.000000
  224        3.781183   0.000000
  225        3.784836   0.000000
  226        3.908851   0.000000
  227        3.912416   0.000000
  228        4.617557   0.000000
  229        4.619661   0.000000
  230        4.787565   0.000000
  231        4.789861   0.000000
  232        4.925149   0.000000
  233        4.928212   0.000000
  234        5.290247   0.000000
  235        5.292642   0.000000
  236        5.337180   0.000000
  237        5.340156   0.000000
  238        5.359608   0.000000
  239        5.405327   0.000000
  240        5.632549   0.000000
 
  0.1250000E+00  0.3750000E+00  0.0000000E+00  0.1250000E+00
    1       -8.333777   1.000000
    2       -7.705678   1.000000
    3       -6.810856   1.000000
    4       -6.546685   1.000000
    5       -6.258020   1.000000
    6       -6.025854   1.000000
    7       -5.607507   1.000000
    8       -5.340446   1.000000
    9       -5.216186   1.000000
   10       -5.072778   1.000000
   11       -4.977834   1.000000
   12       -4.907794   1.000000
   13       -4.879032   1.000000
   14       -4.871384   1.000000
   15       -4.627854   1.000000
   16       -4.599854   1.000000
   17       -4.593428   1.000000
   18       -4.538519   1.000000
   19       -4.530589   1.000000
   20       -4.490132   1.000000
   21       -4.379371   1.000000
   22       -4.329401   1.000000
   23       -4.319174   1.000000
   24       -4.283248   1.000000
   25       -4.252179   1.000000
   26       -4.214307   1.000000
   27       -4.204569   1.000000
   28       -4.195521   1.000000
   29       -4.183204   1.000000
   30       -4.155753   1.000000
   31       -4.136212   1.000000
   32       -4.129983   1.000000
   33       -4.039571   1.000000
   34       -4.032986   1.000000
   35       -3.956943   1.000000
   36       -3.945757   1.000000
   37       -3.921397   1.000000
   38       -3.911323   1.000000
   39       -3.851839   1.000000
   40       -3.847131   1.000000
   41       -3.832915   1.000000
   42       -3.804157   1.000000
   43       -3.794905   1.000000
   44       -3.728924   1.000000
   45       -3.726218   1.000000
   46       -3.714079   1.000000
   47       -3.660527   1.000000
   48       -3.622279   1.000000
   49       -3.616851   1.000000
   50       -3.599368   1.000000
   51       -3.594405   1.000000
   52       -3.530922   1.000000
   53       -3.490735   1.000000
   54       -3.482907   1.000000
   55       -3.467219   1.000000
   56       -3.443871   1.000000
   57       -3.435515   1.000000
   58       -3.422434   1.000000
   59       -3.375456   1.000000
   60       -3.370020   1.000000
   61       -3.354022   1.000000
   62       -3.349100   1.000000
   63       -3.336707   1.000000
   64       -3.328328   1.000000
   65       -3.317869   1.000000
   66       -3.310276   1.000000
   67       -3.294559   1.000000
   68       -3.220076   1.000000
   69       -3.180981   1.000000
   70       -3.150072   1.000000
   71       -3.140935   1.000000
   72       -3.136394   1.000000
   73       -3.116962   1.000000
   74       -3.103847   1.000000
   75       -3.057258   1.000000
   76       -3.035343   1.000000
   77       -3.011858   1.000000
   78       -3.004160   1.000000
   79       -2.995614   1.000000
   80       -2.992850   1.000000
   81       -2.986733   1.000000
   82       -2.982978   1.000000
   83       -2.974109   1.000000
   84       -2.970147   1.000000
   85       -2.955672   1.000000
   86       -2.941331   1.000000
   87       -2.926365   1.000000
   88       -2.925261   1.000000
   89       -2.901985   1.000000
   90       -2.892084   1.000000
   91       -2.889204   1.000000
   92       -2.867825   1.000000
   93       -2.861387   1.000000
   94       -2.827270   1.000000
   95       -2.819114   1.000000
   96       -2.792283   1.000000
   97       -2.765652   1.000000
   98       -2.762578   1.000000
   99       -2.705094   1.000000
  100       -2.691189   1.000000
  101       -2.658537   1.000000
  102       -2.653546   1.000000
  103       -2.641457   1.000000
  104       -2.635337   1.000000
  105       -2.630446   1.000000
  106       -2.626506   1.000000
  107       -2.609246   1.000000
  108       -2.604157   1.000000
  109       -2.591059   1.000000
  110       -2.574327   1.000000
  111       -2.564783   1.000000
  112       -2.548099   1.000000
  113       -2.518240   1.000000
  114       -2.503038   1.000000
  115       -2.501137   1.000000
  116       -2.494017   1.000000
  117       -2.491087   1.000000
  118       -2.484802   1.000000
  119       -2.459798   1.000000
  120       -2.452402   1.000000
  121       -2.438488   1.000000
  122       -2.419933   1.000000
  123       -2.412090   1.000000
  124       -2.404561   1.000000
  125       -2.396992   1.000000
  126       -2.337297   1.000000
  127       -2.307588   1.000000
  128       -2.291134   1.000000
  129       -2.282297   1.000000
  130       -2.274468   1.000000
  131       -2.268190   1.000000
  132       -2.258390   1.000000
  133       -2.237343   1.000000
  134       -2.226715   1.000000
  135       -2.218831   1.000000
  136       -2.214681   1.000000
  137       -2.205200   1.000000
  138       -2.202829   1.000000
  139       -2.187585   1.000000
  140       -2.176670   1.000000
  141       -2.171848   1.000000
  142       -2.171044   1.000000
  143       -2.156722   1.000000
  144       -2.155813   1.000000
  145       -2.134237   1.000000
  146       -2.131495   1.000000
  147       -2.114385   1.000000
  148       -2.104663   1.000000
  149       -2.075898   1.000000
  150       -2.069618   1.000000
  151       -2.065146   1.000000
  152       -2.031488   1.000000
  153       -2.015467   1.000000
  154       -2.010089   1.000000
  155       -1.998835   1.000000
  156       -1.994243   1.000000
  157       -1.962528   1.000000
  158       -1.954917   1.000000
  159       -1.932776   1.000000
  160       -1.932028   1.000000
  161       -1.931229   1.000000
  162       -1.922824   1.000000
  163       -1.916313   1.000000
  164       -1.912288   1.000000
  165       -1.909671   1.000000
  166       -1.896208   1.000000
  167       -1.876859   1.000000
  168       -1.873904   1.000000
  169       -1.872107   1.000000
  170       -1.870014   1.000000
  171       -1.860345   1.000000
  172       -1.847093   1.000000
  173       -1.845004   1.000000
  174       -1.842120   1.000000
  175       -1.826912   1.000000
  176       -1.805475   1.000000
  177       -1.788669   1.000000
  178       -1.777343   1.000000
  179       -1.767438   1.000000
  180       -1.763178   1.000000
  181       -1.753648   1.000000
  182       -1.725348   1.000000
  183       -1.710152   1.000000
  184       -1.708855   1.000000
  185       -1.693497   1.000000
  186       -1.670290   1.000000
  187       -1.619796   1.000000
  188       -1.579973   1.000000
  189       -1.558216   1.000000
  190       -1.496411   1.000000
  191       -1.456084   1.000000
  192       -1.390222   1.000000
  193       -1.320936   1.000000
  194       -0.968180   0.999988
  195       -0.878240   0.999854
  196       -0.743810   0.997767
  197       -0.571884   1.003735
  198       -0.156059   0.082945
  199        0.034719  -0.017487
  200        0.046233  -0.012810
  201        0.122739   0.003892
  202        0.223713   0.003033
  203        0.365306   0.000214
  204        0.559305   0.000001
  205        0.799500   0.000000
  206        0.997445   0.000000
  207        1.374178   0.000000
  208        1.484038   0.000000
  209        1.783407   0.000000
  210        1.799858   0.000000
  211        2.048504   0.000000
  212        2.286453   0.000000
  213        2.349839   0.000000
  214        2.384199   0.000000
  215        2.457531   0.000000
  216        2.484950   0.000000
  217        2.744367   0.000000
  218        2.811167   0.000000
  219        2.931585   0.000000
  220        3.015648   0.000000
  221        3.460533   0.000000
  222        3.477154   0.000000
  223        3.648099   0.000000
  224        3.731326   0.000000
  225        3.876896   0.000000
  226        3.899305   0.000000
  227        4.119394   0.000000
  228        4.133361   0.000000
  229        4.199682   0.000000
  230        4.294273   0.000000
  231        4.389373   0.000000
  232        4.741248   0.000000
  233        4.763154   0.000000
  234        4.824134   0.000000
  235        5.053659   0.000000
  236        5.098322   0.000000
  237        5.226724   0.000000
  238        5.320623   0.000000
  239        5.692255   0.000000
  240        8.287067   0.000000
 
  0.3750000E+00  0.3750000E+00  0.0000000E+00  0.1250000E+00
    1       -8.013728   1.000000
    2       -7.400290   1.000000
    3       -7.393404   1.000000
    4       -6.809552   1.000000
    5       -6.515815   1.000000
    6       -5.980847   1.000000
    7       -5.972249   1.000000
    8       -5.472128   1.000000
    9       -4.885552   1.000000
   10       -4.878567   1.000000
   11       -4.743593   1.000000
   12       -4.702938   1.000000
   13       -4.694529   1.000000
   14       -4.648929   1.000000
   15       -4.622356   1.000000
   16       -4.618613   1.000000
   17       -4.593395   1.000000
   18       -4.442319   1.000000
   19       -4.426234   1.000000
   20       -4.421764   1.000000
   21       -4.404372   1.000000
   22       -4.399649   1.000000
   23       -4.279458   1.000000
   24       -4.276408   1.000000
   25       -4.246885   1.000000
   26       -4.239962   1.000000
   27       -4.209673   1.000000
   28       -4.203249   1.000000
   29       -4.192920   1.000000
   30       -4.190097   1.000000
   31       -4.121224   1.000000
   32       -4.100203   1.000000
   33       -4.097686   1.000000
   34       -4.092803   1.000000
   35       -4.047247   1.000000
   36       -4.042687   1.000000
   37       -4.022884   1.000000
   38       -3.963318   1.000000
   39       -3.960071   1.000000
   40       -3.954462   1.000000
   41       -3.914176   1.000000
   42       -3.786410   1.000000
   43       -3.748552   1.000000
   44       -3.709321   1.000000
   45       -3.706054   1.000000
   46       -3.645501   1.000000
   47       -3.634766   1.000000
   48       -3.620451   1.000000
   49       -3.614517   1.000000
   50       -3.607716   1.000000
   51       -3.592743   1.000000
   52       -3.586282   1.000000
   53       -3.552611   1.000000
   54       -3.543799   1.000000
   55       -3.514349   1.000000
   56       -3.427075   1.000000
   57       -3.418229   1.000000
   58       -3.410924   1.000000
   59       -3.403527   1.000000
   60       -3.365731   1.000000
   61       -3.358320   1.000000
   62       -3.319994   1.000000
   63       -3.317707   1.000000
   64       -3.283409   1.000000
   65       -3.275017   1.000000
   66       -3.255365   1.000000
   67       -3.249484   1.000000
   68       -3.234758   1.000000
   69       -3.226209   1.000000
   70       -3.177308   1.000000
   71       -3.168590   1.000000
   72       -3.147547   1.000000
   73       -3.144255   1.000000
   74       -3.134448   1.000000
   75       -3.124445   1.000000
   76       -3.089019   1.000000
   77       -3.055172   1.000000
   78       -3.048952   1.000000
   79       -3.044822   1.000000
   80       -3.040381   1.000000
   81       -3.037869   1.000000
   82       -3.029075   1.000000
   83       -2.970979   1.000000
   84       -2.961346   1.000000
   85       -2.957838   1.000000
   86       -2.940481   1.000000
   87       -2.917516   1.000000
   88       -2.914098   1.000000
   89       -2.888031   1.000000
   90       -2.884480   1.000000
   91       -2.860795   1.000000
   92       -2.856638   1.000000
   93       -2.852031   1.000000
   94       -2.812348   1.000000
   95       -2.810324   1.000000
   96       -2.760255   1.000000
   97       -2.750225   1.000000
   98       -2.746785   1.000000
   99       -2.728855   1.000000
  100       -2.711296   1.000000
  101       -2.704880   1.000000
  102       -2.671538   1.000000
  103       -2.659150   1.000000
  104       -2.647862   1.000000
  105       -2.641393   1.000000
  106       -2.639037   1.000000
  107       -2.635635   1.000000
  108       -2.633049   1.000000
  109       -2.620137   1.000000
  110       -2.610625   1.000000
  111       -2.559894   1.000000
  112       -2.556533   1.000000
  113       -2.554044   1.000000
  114       -2.548345   1.000000
  115       -2.531143   1.000000
  116       -2.524255   1.000000
  117       -2.508714   1.000000
  118       -2.505642   1.000000
  119       -2.500394   1.000000
  120       -2.495705   1.000000
  121       -2.490644   1.000000
  122       -2.484766   1.000000
  123       -2.478869   1.000000
  124       -2.467140   1.000000
  125       -2.463933   1.000000
  126       -2.463334   1.000000
  127       -2.432587   1.000000
  128       -2.408806   1.000000
  129       -2.405310   1.000000
  130       -2.383063   1.000000
  131       -2.324471   1.000000
  132       -2.320876   1.000000
  133       -2.273257   1.000000
  134       -2.269796   1.000000
  135       -2.223727   1.000000
  136       -2.221613   1.000000
  137       -2.220858   1.000000
  138       -2.188661   1.000000
  139       -2.168448   1.000000
  140       -2.165047   1.000000
  141       -2.161452   1.000000
  142       -2.159141   1.000000
  143       -2.153745   1.000000
  144       -2.149934   1.000000
  145       -2.145630   1.000000
  146       -2.115414   1.000000
  147       -2.115104   1.000000
  148       -2.083417   1.000000
  149       -2.079840   1.000000
  150       -2.061977   1.000000
  151       -2.033874   1.000000
  152       -2.000834   1.000000
  153       -1.994569   1.000000
  154       -1.983156   1.000000
  155       -1.976680   1.000000
  156       -1.975055   1.000000
  157       -1.974567   1.000000
  158       -1.972032   1.000000
  159       -1.956443   1.000000
  160       -1.953179   1.000000
  161       -1.948819   1.000000
  162       -1.947848   1.000000
  163       -1.932469   1.000000
  164       -1.931191   1.000000
  165       -1.929951   1.000000
  166       -1.929303   1.000000
  167       -1.866057   1.000000
  168       -1.845950   1.000000
  169       -1.842593   1.000000
  170       -1.826205   1.000000
  171       -1.825204   1.000000
  172       -1.819428   1.000000
  173       -1.810406   1.000000
  174       -1.797502   1.000000
  175       -1.796924   1.000000
  176       -1.782850   1.000000
  177       -1.782282   1.000000
  178       -1.757564   1.000000
  179       -1.755216   1.000000
  180       -1.753216   1.000000
  181       -1.749541   1.000000
  182       -1.740148   1.000000
  183       -1.739063   1.000000
  184       -1.728796   1.000000
  185       -1.721681   1.000000
  186       -1.673628   1.000000
  187       -1.494373   1.000000
  188       -1.395090   1.000000
  189       -1.376312   1.000000
  190       -1.123263   1.000000
  191       -1.121802   1.000000
  192       -0.789205   0.998957
  193       -0.786845   0.998911
  194       -0.642037   0.995160
  195       -0.458465   1.049181
  196       -0.457607   1.049394
  197       -0.312048   0.810197
  198       -0.307327   0.790212
  199        0.246792   0.002219
  200        0.464603   0.000014
  201        0.469129   0.000012
  202        0.653264   0.000000
  203        0.655193   0.000000
  204        0.745929   0.000000
  205        0.750381   0.000000
  206        0.917532   0.000000
  207        0.928396   0.000000
  208        1.156351   0.000000
  209        1.159735   0.000000
  210        1.570013   0.000000
  211        1.727342   0.000000
  212        1.738528   0.000000
  213        1.797829   0.000000
  214        1.946858   0.000000
  215        2.393690   0.000000
  216        2.541446   0.000000
  217        2.723565   0.000000
  218        2.726647   0.000000
  219        2.975641   0.000000
  220        2.983435   0.000000
  221        3.098936   0.000000
  222        3.102436   0.000000
  223        3.321470   0.000000
  224        3.323393   0.000000
  225        3.416414   0.000000
  226        3.688973   0.000000
  227        3.774907   0.000000
  228        3.775994   0.000000
  229        3.809397   0.000000
  230        3.972662   0.000000
  231        4.371346   0.000000
  232        4.378884   0.000000
  233        4.567665   0.000000
  234        4.616856   0.000000
  235        4.619092   0.000000
  236        5.256632   0.000000
  237        5.260468   0.000000
  238        5.265754   0.000000
  239        5.702595   0.000000
  240        5.782432   0.000000
 
 -0.3750000E+00  0.3750000E+00  0.0000000E+00  0.1250000E+00
    1       -8.013725   1.000000
    2       -7.399571   1.000000
    3       -7.394146   1.000000
    4       -6.809517   1.000000
    5       -6.515822   1.000000
    6       -5.981948   1.000000
    7       -5.971162   1.000000
    8       -5.472108   1.000000
    9       -4.885719   1.000000
   10       -4.878477   1.000000
   11       -4.743567   1.000000
   12       -4.703209   1.000000
   13       -4.694031   1.000000
   14       -4.648848   1.000000
   15       -4.621460   1.000000
   16       -4.618765   1.000000
   17       -4.594403   1.000000
   18       -4.442370   1.000000
   19       -4.426573   1.000000
   20       -4.421229   1.000000
   21       -4.403810   1.000000
   22       -4.400364   1.000000
   23       -4.279149   1.000000
   24       -4.276689   1.000000
   25       -4.246928   1.000000
   26       -4.239654   1.000000
   27       -4.209378   1.000000
   28       -4.203282   1.000000
   29       -4.193630   1.000000
   30       -4.190100   1.000000
   31       -4.121368   1.000000
   32       -4.100305   1.000000
   33       -4.097512   1.000000
   34       -4.092871   1.000000
   35       -4.047285   1.000000
   36       -4.042575   1.000000
   37       -4.022693   1.000000
   38       -3.962933   1.000000
   39       -3.960225   1.000000
   40       -3.954699   1.000000
   41       -3.914160   1.000000
   42       -3.786488   1.000000
   43       -3.748405   1.000000
   44       -3.709052   1.000000
   45       -3.706107   1.000000
   46       -3.646145   1.000000
   47       -3.635216   1.000000
   48       -3.620410   1.000000
   49       -3.614138   1.000000
   50       -3.608677   1.000000
   51       -3.592031   1.000000
   52       -3.586288   1.000000
   53       -3.552278   1.000000
   54       -3.543225   1.000000
   55       -3.514377   1.000000
   56       -3.427160   1.000000
   57       -3.418342   1.000000
   58       -3.410424   1.000000
   59       -3.403701   1.000000
   60       -3.366135   1.000000
   61       -3.358383   1.000000
   62       -3.320252   1.000000
   63       -3.317426   1.000000
   64       -3.285074   1.000000
   65       -3.274122   1.000000
   66       -3.256244   1.000000
   67       -3.247399   1.000000
   68       -3.234713   1.000000
   69       -3.225386   1.000000
   70       -3.178575   1.000000
   71       -3.168758   1.000000
   72       -3.147557   1.000000
   73       -3.143719   1.000000
   74       -3.134388   1.000000
   75       -3.124703   1.000000
   76       -3.089357   1.000000
   77       -3.055323   1.000000
   78       -3.048562   1.000000
   79       -3.045363   1.000000
   80       -3.039982   1.000000
   81       -3.037783   1.000000
   82       -3.028796   1.000000
   83       -2.972349   1.000000
   84       -2.961034   1.000000
   85       -2.957039   1.000000
   86       -2.939131   1.000000
   87       -2.917550   1.000000
   88       -2.914585   1.000000
   89       -2.888248   1.000000
   90       -2.884779   1.000000
   91       -2.861350   1.000000
   92       -2.856158   1.000000
   93       -2.852446   1.000000
   94       -2.813174   1.000000
   95       -2.809555   1.000000
   96       -2.759913   1.000000
   97       -2.750221   1.000000
   98       -2.746870   1.000000
   99       -2.729159   1.000000
  100       -2.711731   1.000000
  101       -2.704980   1.000000
  102       -2.671631   1.000000
  103       -2.659766   1.000000
  104       -2.647112   1.000000
  105       -2.641077   1.000000
  106       -2.639214   1.000000
  107       -2.635116   1.000000
  108       -2.633454   1.000000
  109       -2.620931   1.000000
  110       -2.609000   1.000000
  111       -2.559555   1.000000
  112       -2.556997   1.000000
  113       -2.553802   1.000000
  114       -2.547593   1.000000
  115       -2.531885   1.000000
  116       -2.524237   1.000000
  117       -2.508495   1.000000
  118       -2.505592   1.000000
  119       -2.499065   1.000000
  120       -2.495431   1.000000
  121       -2.491154   1.000000
  122       -2.485012   1.000000
  123       -2.480438   1.000000
  124       -2.467357   1.000000
  125       -2.464185   1.000000
  126       -2.462762   1.000000
  127       -2.432811   1.000000
  128       -2.407484   1.000000
  129       -2.405884   1.000000
  130       -2.383961   1.000000
  131       -2.324696   1.000000
  132       -2.319967   1.000000
  133       -2.272941   1.000000
  134       -2.270052   1.000000
  135       -2.224036   1.000000
  136       -2.221871   1.000000
  137       -2.220996   1.000000
  138       -2.188598   1.000000
  139       -2.168102   1.000000
  140       -2.165435   1.000000
  141       -2.162587   1.000000
  142       -2.158727   1.000000
  143       -2.153768   1.000000
  144       -2.149867   1.000000
  145       -2.145062   1.000000
  146       -2.115315   1.000000
  147       -2.115107   1.000000
  148       -2.083175   1.000000
  149       -2.079874   1.000000
  150       -2.062007   1.000000
  151       -2.033818   1.000000
  152       -2.000953   1.000000
  153       -1.994384   1.000000
  154       -1.983534   1.000000
  155       -1.976891   1.000000
  156       -1.975214   1.000000
  157       -1.974263   1.000000
  158       -1.971839   1.000000
  159       -1.956348   1.000000
  160       -1.953477   1.000000
  161       -1.948492   1.000000
  162       -1.947663   1.000000
  163       -1.932237   1.000000
  164       -1.931258   1.000000
  165       -1.929901   1.000000
  166       -1.929401   1.000000
  167       -1.866038   1.000000
  168       -1.845959   1.000000
  169       -1.842856   1.000000
  170       -1.826461   1.000000
  171       -1.825003   1.000000
  172       -1.819386   1.000000
  173       -1.810606   1.000000
  174       -1.797513   1.000000
  175       -1.796793   1.000000
  176       -1.782904   1.000000
  177       -1.782226   1.000000
  178       -1.757657   1.000000
  179       -1.755755   1.000000
  180       -1.752585   1.000000
  181       -1.749300   1.000000
  182       -1.740379   1.000000
  183       -1.738846   1.000000
  184       -1.728930   1.000000
  185       -1.721682   1.000000
  186       -1.673668   1.000000
  187       -1.494391   1.000000
  188       -1.395103   1.000000
  189       -1.376318   1.000000
  190       -1.123139   1.000000
  191       -1.121784   1.000000
  192       -0.788754   0.998949
  193       -0.787251   0.998919
  194       -0.642163   0.995158
  195       -0.458559   1.049157
  196       -0.457506   1.049418
  197       -0.312939   0.813887
  198       -0.306191   0.785297
  199        0.246739   0.002221
  200        0.464480   0.000014
  201        0.469140   0.000012
  202        0.653188   0.000000
  203        0.655072   0.000000
  204        0.745875   0.000000
  205        0.750254   0.000000
  206        0.917798   0.000000
  207        0.928202   0.000000
  208        1.156791   0.000000
  209        1.159404   0.000000
  210        1.570084   0.000000
  211        1.729581   0.000000
  212        1.738201   0.000000
  213        1.795932   0.000000
  214        1.946841   0.000000
  215        2.393777   0.000000
  216        2.541669   0.000000
  217        2.722629   0.000000
  218        2.727616   0.000000
  219        2.974556   0.000000
  220        2.984386   0.000000
  221        3.098589   0.000000
  222        3.102757   0.000000
  223        3.321808   0.000000
  224        3.323488   0.000000
  225        3.416407   0.000000
  226        3.687574   0.000000
  227        3.774073   0.000000
  228        3.777396   0.000000
  229        3.809421   0.000000
  230        3.972696   0.000000
  231        4.370959   0.000000
  232        4.379460   0.000000
  233        4.567895   0.000000
  234        4.616953   0.000000
  235        4.619026   0.000000
  236        5.256052   0.000000
  237        5.260084   0.000000
  238        5.265984   0.000000
  239        5.701605   0.000000
  240        5.901189   0.000000
 
 -0.1250000E+00  0.3750000E+00  0.0000000E+00  0.1250000E+00
    1       -8.333776   1.000000
    2       -7.705679   1.000000
    3       -6.810849   1.000000
    4       -6.546724   1.000000
    5       -6.257991   1.000000
    6       -6.025858   1.000000
    7       -5.607506   1.000000
    8       -5.340457   1.000000
    9       -5.216149   1.000000
   10       -5.072803   1.000000
   11       -4.977792   1.000000
   12       -4.907692   1.000000
   13       -4.879517   1.000000
   14       -4.870904   1.000000
   15       -4.627871   1.000000
   16       -4.599748   1.000000
   17       -4.593561   1.000000
   18       -4.539313   1.000000
   19       -4.530117   1.000000
   20       -4.489893   1.000000
   21       -4.379327   1.000000
   22       -4.329446   1.000000
   23       -4.319183   1.000000
   24       -4.283400   1.000000
   25       -4.251981   1.000000
   26       -4.214413   1.000000
   27       -4.204677   1.000000
   28       -4.195485   1.000000
   29       -4.182974   1.000000
   30       -4.155619   1.000000
   31       -4.136358   1.000000
   32       -4.130032   1.000000
   33       -4.039055   1.000000
   34       -4.033600   1.000000
   35       -3.956899   1.000000
   36       -3.945516   1.000000
   37       -3.921470   1.000000
   38       -3.911601   1.000000
   39       -3.851720   1.000000
   40       -3.847258   1.000000
   41       -3.832996   1.000000
   42       -3.804389   1.000000
   43       -3.794641   1.000000
   44       -3.729030   1.000000
   45       -3.726317   1.000000
   46       -3.713645   1.000000
   47       -3.660486   1.000000
   48       -3.622104   1.000000
   49       -3.616895   1.000000
   50       -3.599754   1.000000
   51       -3.594418   1.000000
   52       -3.530985   1.000000
   53       -3.490634   1.000000
   54       -3.483399   1.000000
   55       -3.466962   1.000000
   56       -3.443473   1.000000
   57       -3.435451   1.000000
   58       -3.422807   1.000000
   59       -3.375294   1.000000
   60       -3.369990   1.000000
   61       -3.353577   1.000000
   62       -3.349162   1.000000
   63       -3.336728   1.000000
   64       -3.328271   1.000000
   65       -3.318159   1.000000
   66       -3.310270   1.000000
   67       -3.294447   1.000000
   68       -3.220052   1.000000
   69       -3.180884   1.000000
   70       -3.150055   1.000000
   71       -3.141549   1.000000
   72       -3.136700   1.000000
   73       -3.116877   1.000000
   74       -3.103340   1.000000
   75       -3.056922   1.000000
   76       -3.034637   1.000000
   77       -3.012609   1.000000
   78       -3.004872   1.000000
   79       -2.995597   1.000000
   80       -2.993201   1.000000
   81       -2.986176   1.000000
   82       -2.982305   1.000000
   83       -2.973334   1.000000
   84       -2.971600   1.000000
   85       -2.955278   1.000000
   86       -2.941118   1.000000
   87       -2.926915   1.000000
   88       -2.923556   1.000000
   89       -2.903261   1.000000
   90       -2.892075   1.000000
   91       -2.889466   1.000000
   92       -2.867516   1.000000
   93       -2.861461   1.000000
   94       -2.827150   1.000000
   95       -2.818975   1.000000
   96       -2.792852   1.000000
   97       -2.766066   1.000000
   98       -2.762799   1.000000
   99       -2.705812   1.000000
  100       -2.691055   1.000000
  101       -2.658917   1.000000
  102       -2.651654   1.000000
  103       -2.640599   1.000000
  104       -2.635430   1.000000
  105       -2.630436   1.000000
  106       -2.626128   1.000000
  107       -2.609125   1.000000
  108       -2.604318   1.000000
  109       -2.593109   1.000000
  110       -2.574342   1.000000
  111       -2.564212   1.000000
  112       -2.548598   1.000000
  113       -2.518446   1.000000
  114       -2.503612   1.000000
  115       -2.501278   1.000000
  116       -2.493241   1.000000
  117       -2.490840   1.000000
  118       -2.483897   1.000000
  119       -2.458736   1.000000
  120       -2.452421   1.000000
  121       -2.438634   1.000000
  122       -2.420662   1.000000
  123       -2.410752   1.000000
  124       -2.404291   1.000000
  125       -2.398623   1.000000
  126       -2.337205   1.000000
  127       -2.307586   1.000000
  128       -2.290840   1.000000
  129       -2.282872   1.000000
  130       -2.274501   1.000000
  131       -2.268301   1.000000
  132       -2.258167   1.000000
  133       -2.237462   1.000000
  134       -2.227221   1.000000
  135       -2.219501   1.000000
  136       -2.214028   1.000000
  137       -2.204929   1.000000
  138       -2.203292   1.000000
  139       -2.188102   1.000000
  140       -2.176590   1.000000
  141       -2.172561   1.000000
  142       -2.170855   1.000000
  143       -2.156912   1.000000
  144       -2.155169   1.000000
  145       -2.133817   1.000000
  146       -2.131279   1.000000
  147       -2.114489   1.000000
  148       -2.104379   1.000000
  149       -2.076187   1.000000
  150       -2.069271   1.000000
  151       -2.065143   1.000000
  152       -2.031103   1.000000
  153       -2.016346   1.000000
  154       -2.009572   1.000000
  155       -1.998805   1.000000
  156       -1.994290   1.000000
  157       -1.962313   1.000000
  158       -1.954794   1.000000
  159       -1.933154   1.000000
  160       -1.932215   1.000000
  161       -1.931111   1.000000
  162       -1.922640   1.000000
  163       -1.916498   1.000000
  164       -1.912503   1.000000
  165       -1.909196   1.000000
  166       -1.896080   1.000000
  167       -1.877549   1.000000
  168       -1.873928   1.000000
  169       -1.872247   1.000000
  170       -1.869695   1.000000
  171       -1.859514   1.000000
  172       -1.847147   1.000000
  173       -1.845058   1.000000
  174       -1.842274   1.000000
  175       -1.827052   1.000000
  176       -1.805491   1.000000
  177       -1.788843   1.000000
  178       -1.777283   1.000000
  179       -1.767321   1.000000
  180       -1.763272   1.000000
  181       -1.753614   1.000000
  182       -1.725283   1.000000
  183       -1.710192   1.000000
  184       -1.708753   1.000000
  185       -1.693482   1.000000
  186       -1.670526   1.000000
  187       -1.619573   1.000000
  188       -1.580139   1.000000
  189       -1.558326   1.000000
  190       -1.496564   1.000000
  191       -1.455958   1.000000
  192       -1.390275   1.000000
  193       -1.320741   1.000000
  194       -0.968165   0.999988
  195       -0.878175   0.999854
  196       -0.743847   0.997768
  197       -0.571738   1.003773
  198       -0.156072   0.082986
  199        0.033623  -0.017957
  200        0.047293  -0.012405
  201        0.122732   0.003892
  202        0.223582   0.003037
  203        0.365291   0.000214
  204        0.559331   0.000001
  205        0.799369   0.000000
  206        0.997541   0.000000
  207        1.374187   0.000000
  208        1.484137   0.000000
  209        1.782904   0.000000
  210        1.800233   0.000000
  211        2.048671   0.000000
  212        2.286223   0.000000
  213        2.349700   0.000000
  214        2.384299   0.000000
  215        2.457669   0.000000
  216        2.485354   0.000000
  217        2.744399   0.000000
  218        2.810697   0.000000
  219        2.932026   0.000000
  220        3.015689   0.000000
  221        3.459860   0.000000
  222        3.477534   0.000000
  223        3.648131   0.000000
  224        3.731211   0.000000
  225        3.876781   0.000000
  226        3.899287   0.000000
  227        4.118637   0.000000
  228        4.133915   0.000000
  229        4.200658   0.000000
  230        4.294277   0.000000
  231        4.389370   0.000000
  232        4.740730   0.000000
  233        4.763352   0.000000
  234        4.824146   0.000000
  235        5.053500   0.000000
  236        5.096043   0.000000
  237        5.219658   0.000000
  238        5.289134   0.000000
  239        5.620930   0.000000
  240        5.676550   0.000000
