 vasp.5.4.4.18Apr17-6-g9f103f2a35 (build Mar 06 2021 22:04:06) complex          
  
 executed on             LinuxIFC date 2024.03.06  14:29:20
 running on   16 total cores
 distrk:  each k-point on   16 cores,    1 groups
 distr:  one band on NCORES_PER_BAND=   1 cores,   16 groups


--------------------------------------------------------------------------------------------------------


 INCAR:
 POTCAR:    PAW_PBE Cu 22Jun2005                  

 ----------------------------------------------------------------------------- 
|                                                                             |
|           W    W    AA    RRRRR   N    N  II  N    N   GGGG   !!!           |
|           W    W   A  A   R    R  NN   N  II  NN   N  G    G  !!!           |
|           W    W  A    A  R    R  N N  N  II  N N  N  G       !!!           |
|           W WW W  AAAAAA  RRRRR   N  N N  II  N  N N  G  GGG   !            |
|           WW  WW  A    A  R   R   N   NN  II  N   NN  G    G                |
|           W    W  A    A  R    R  N    N  II  N    N   GGGG   !!!           |
|                                                                             |
|      For optimal performance we recommend to set                            |
|        NCORE= 4 - approx SQRT( number of cores)                             |
|      NCORE specifies how many cores store one orbital (NPAR=cpu/NCORE).     |
|      This setting can  greatly improve the performance of VASP for DFT.     |
|      The default,   NCORE=1            might be grossly inefficient         |
|      on modern multi-core architectures or massively parallel machines.     |
|      Do your own testing !!!!                                               |
|      Unfortunately you need to use the default for GW and RPA calculations. |
|      (for HF NCORE is supported but not extensively tested yet)             |
|                                                                             |
 ----------------------------------------------------------------------------- 

 POTCAR:    PAW_PBE Cu 22Jun2005                  
   VRHFIN =Cu: d10 p1                                                           
   LEXCH  = PE                                                                  
   EATOM  =  1390.9808 eV,  102.2342 Ry                                         
                                                                                
   TITEL  = PAW_PBE Cu 22Jun2005                                                
   LULTRA =        F    use ultrasoft PP ?                                      
   IUNSCR =        1    unscreen: 0-lin 1-nonlin 2-no                           
   RPACOR =    2.000    partial core radius                                     
   POMASS =   63.546; ZVAL   =   11.000    mass and valenz                      
   RCORE  =    2.300    outmost cutoff radius                                   
   RWIGS  =    2.200; RWIGS  =    1.164    wigner-seitz radius (au A)           
   ENMAX  =  295.446; ENMIN  =  221.585 eV                                      
   ICORE  =        3    local potential                                         
   LCOR   =        T    correct aug charges                                     
   LPAW   =        T    paw PP                                                  
   EAUG   =  586.980                                                            
   DEXC   =    0.000                                                            
   RMAX   =    2.344    core radius for proj-oper                               
   RAUG   =    1.300    factor for augmentation sphere                          
   RDEP   =    2.302    radius for radial grids                                 
   RDEPT  =    1.771    core radius for aug-charge                              
                                                                                
   Atomic configuration                                                         
    9 entries                                                                   
     n  l   j            E        occ.                                          
     1  0  0.50     -8850.2468   2.0000                                         
     2  0  0.50     -1062.3498   2.0000                                         
     2  1  1.50      -916.8226   6.0000                                         
     3  0  0.50      -114.6929   2.0000                                         
     3  1  1.50       -72.1325   6.0000                                         
     3  2  2.50        -5.0394  10.0000                                         
     4  0  0.50        -4.6097   1.0000                                         
     4  1  0.50        -4.0817   0.0000                                         
     4  3  2.50        -1.3606   0.0000                                         
   Description                                                                  
     l       E           TYP  RCUT    TYP  RCUT                                 
     2     -5.0393973     23  2.200                                             
     2     10.8846608     23  2.200                                             
     0     -4.6097109     23  2.200                                             
     0      8.2520465     23  2.200                                             
     1     -2.7211652     23  2.200                                             
     1     21.7055443     23  2.200                                             
     3      2.7211652     23  2.300                                             
  local pseudopotential read in
  partial core-charges read in
  partial kinetic energy density read in
  atomic valenz-charges read in
  non local Contribution for L=           2  read in
    real space projection operators read in
  non local Contribution for L=           2  read in
    real space projection operators read in
  non local Contribution for L=           0  read in
    real space projection operators read in
  non local Contribution for L=           0  read in
    real space projection operators read in
  non local Contribution for L=           1  read in
    real space projection operators read in
  non local Contribution for L=           1  read in
    real space projection operators read in
    PAW grid and wavefunctions read in
 
   number of l-projection  operators is LMAX  =           6
   number of lm-projection operators is LMMAX =          18
 
 Optimization of the real space projectors (new method)

 maximal supplied QI-value         = 16.25
 optimisation between [QCUT,QGAM] = [ 11.86, 23.89] = [ 39.41,159.82] Ry 
 Optimized for a Real-space Cutoff    1.37 Angstroem

   l    n(q)    QCUT    max X(q) W(low)/X(q) W(high)/X(q)  e(spline) 
   2      9    11.864     4.610    0.26E-03    0.41E-03    0.20E-06
   2      9    11.864     8.522    0.43E-03    0.67E-03    0.35E-06
   0     10    11.864    51.609    0.83E-04    0.11E-03    0.13E-06
   0     10    11.864    27.747    0.78E-04    0.11E-03    0.12E-06
   1      9    11.864    20.408    0.13E-03    0.42E-04    0.22E-06
   1      9    11.864    13.425    0.12E-03    0.35E-04    0.19E-06

 ----------------------------------------------------------------------------- 
|                                                                             |
|  ADVICE TO THIS USER RUNNING 'VASP/VAMP'   (HEAR YOUR MASTER'S VOICE ...):  |
|                                                                             |
|      You enforced a specific xc-type in the INCAR file,                     |
|      a different type was found on the POTCAR file                          |
|          I HOPE YOU KNOW, WHAT YOU ARE  DOING                               |
|                                                                             |
 ----------------------------------------------------------------------------- 

  PAW_PBE Cu 22Jun2005                  :
 energy of atom  1       EATOM=-1390.9808
 kinetic energy error for atom=    0.0036 (will be added to EATOM!!)
 
 
 POSCAR: Cu                                      
  positions in direct lattice
  velocities in cartesian coordinates
 exchange correlation table for  LEXCH =        9
   RHO(1)=    0.500       N(1)  =     2000
   RHO(2)=  100.500       N(2)  =     4000

 VTST: version 3.2, (02/03/18)

 CHAIN: initializing optimizer
 
 OPT: Using VASP Dynamics algorithm
 CHAIN: Read ICHAIN            0
 
 POSCAR: Cu                                      
  positions in direct lattice
  velocities in cartesian coordinates
 


--------------------------------------------------------------------------------------------------------


 ion  position               nearest neighbor table
   1  0.167  0.167  0.000-   3 2.57   7 2.57   4 2.57   2 2.57  10 2.57  11 2.57  13 2.57  14 2.57

   2  0.500  0.167  0.000-   8 2.57   5 2.57   1 2.57  11 2.57  14 2.57  12 2.57  15 2.57   3 2.57

   3  0.833  0.167  0.000-   1 2.57   9 2.57  10 2.57  13 2.57   6 2.57  12 2.57  15 2.57   2 2.57

   4  0.167  0.500  0.000-   6 2.57   5 2.57   1 2.57  13 2.57  14 2.57  16 2.57  17 2.57   7 2.57

   5  0.500  0.500  0.000-  14 2.57   4 2.57   2 2.57  15 2.57  17 2.57  18 2.57   6 2.57   8 2.57

   6  0.833  0.500  0.000-   4 2.57  13 2.57  16 2.57   3 2.57  15 2.57  18 2.57   5 2.57   9 2.57

   7  0.167  0.833  0.000-   1 2.57   9 2.57  10 2.57  11 2.57   8 2.57  16 2.57  17 2.57   4 2.57

   8  0.500  0.833  0.000-   2 2.57  11 2.57  12 2.57   7 2.57  17 2.57  18 2.57   5 2.57   9 2.57

   9  0.833  0.833  0.000-  10 2.57   7 2.57   3 2.57  12 2.57  16 2.57  18 2.57   6 2.57   8 2.57

  10  0.000  0.000  0.082-   9 2.57  12 2.57  16 2.57   7 2.57   3 2.57   1 2.57  13 2.57  11 2.57
                            25 2.62  19 2.63  27 2.65  21 2.65
  11  0.333  0.000  0.082-  17 2.57   8 2.57   7 2.57  12 2.57   2 2.57   1 2.57  14 2.57  10 2.57
                            25 2.62  19 2.62  26 2.63  20 2.63
  12  0.667  0.000  0.082-  10 2.57  18 2.57   9 2.57   8 2.57  11 2.57   3 2.57   2 2.57  15 2.57
                            20 2.63  26 2.63  27 2.65  21 2.66
  13  0.000  0.333  0.082-  15 2.57   6 2.57   3 2.57  16 2.57   4 2.57   1 2.57  10 2.57  14 2.57
                            22 2.58  24 2.62  19 2.62  21 2.63
  14  0.333  0.333  0.082-  23 2.55   5 2.57  17 2.57  15 2.57   4 2.57   2 2.57   1 2.57  13 2.57
                            11 2.57  22 2.57  19 2.61  20 2.62
  15  0.667  0.333  0.082-  23 2.56  13 2.57  18 2.57  14 2.57   6 2.57   5 2.57   3 2.57   2 2.57
                            12 2.57  24 2.60  20 2.61  21 2.63
  16  0.000  0.667  0.082-  10 2.57  18 2.57   9 2.57   6 2.57  13 2.57   7 2.57   4 2.57  17 2.57
                            22 2.58  24 2.61  25 2.62  27 2.63
  17  0.333  0.667  0.082-  23 2.55  11 2.57  18 2.57  14 2.57   8 2.57   5 2.57   7 2.57   4 2.57
                            16 2.57  22 2.57  25 2.61  26 2.61
  18  0.667  0.667  0.082-  23 2.56  16 2.57  12 2.57  17 2.57  15 2.57   9 2.57   6 2.57   8 2.57
                             5 2.57  24 2.60  26 2.62  27 2.63
  19  0.167  0.168  0.166-  22 2.56  28 2.56  20 2.56  29 2.57  21 2.57  25 2.58  31 2.60  14 2.61
                            13 2.62  11 2.62  10 2.63  32 2.63
  20  0.500  0.169  0.167-  23 2.55  19 2.56  30 2.57  29 2.57  21 2.57  26 2.60  32 2.61  15 2.61
                            14 2.62  33 2.62  12 2.63  11 2.63
  21  0.834  0.170  0.168-  24 2.54  28 2.56  30 2.56  20 2.57  19 2.57  31 2.58  33 2.61  27 2.61
                            13 2.63  15 2.63  10 2.65  12 2.66
  22  0.168  0.500  0.164-  23 2.54  19 2.56  25 2.56  14 2.57  17 2.57  13 2.58  16 2.58  24 2.59
                            31 2.62  34 2.63  35 2.66  32 2.67
  23  0.498  0.500  0.162-  22 2.54  14 2.55  17 2.55  20 2.55  26 2.55  15 2.56  18 2.56  24 2.57
                            32 2.67  35 2.67  36 2.68  33 2.68
  24  0.832  0.501  0.166-  21 2.54  27 2.55  23 2.57  22 2.59  18 2.60  15 2.60  34 2.61  16 2.61
                            31 2.61  13 2.62  33 2.63  36 2.63
  25  0.167  0.833  0.166-  26 2.56  22 2.56  29 2.57  27 2.57  28 2.57  19 2.58  34 2.59  17 2.61
                            16 2.62  11 2.62  10 2.62  35 2.63
  26  0.500  0.831  0.167-  23 2.55  29 2.56  25 2.56  27 2.57  30 2.58  20 2.60  36 2.61  17 2.61
                            18 2.62  35 2.62  11 2.63  12 2.63
  27  0.833  0.831  0.168-  24 2.55  30 2.56  28 2.56  25 2.57  34 2.57  26 2.57  36 2.60  21 2.61
                            16 2.63  18 2.63  10 2.65  12 2.65
  28  0.001  0.001  0.248-  21 2.56  29 2.56  27 2.56  19 2.56  25 2.57  30 2.58  31 2.58  34 2.58

  29  0.334  0.999  0.248-  26 2.56  30 2.56  28 2.56  25 2.57  20 2.57  19 2.57  32 2.58  35 2.58

  30  0.667  0.001  0.248-  21 2.56  27 2.56  29 2.56  20 2.57  26 2.58  28 2.58  36 2.58  33 2.58

  31  0.002  0.336  0.250-  34 2.54  32 2.56  21 2.58  28 2.58  33 2.60  19 2.60  24 2.61  22 2.62

  32  0.335  0.334  0.252-  33 2.54  35 2.54  31 2.56  29 2.58  20 2.61  19 2.63  22 2.67  23 2.67

  33  0.665  0.336  0.252-  32 2.54  36 2.54  30 2.58  31 2.60  21 2.61  20 2.62  24 2.63  23 2.68

  34  0.000  0.665  0.249-  31 2.54  35 2.57  27 2.57  28 2.58  36 2.59  25 2.59  24 2.61  22 2.63

  35  0.334  0.665  0.252-  32 2.54  36 2.55  34 2.57  29 2.58  26 2.62  25 2.63  22 2.66  23 2.67

  36  0.664  0.666  0.251-  33 2.54  35 2.55  30 2.58  34 2.59  27 2.60  26 2.61  24 2.63  23 2.68

 

IMPORTANT INFORMATION: All symmetrisations will be switched off!
NOSYMM: (Re-)initialisation of all symmetry stuff for point group C_1.

 
 
 KPOINTS: KPOINTS created by Atomic Simulation Env

Automatic generation of k-mesh.
Space group operators:
 irot       det(A)        alpha          n_x          n_y          n_z        tau_x        tau_y        tau_z
    1     1.000000     0.000001     1.000000     0.000000     0.000000     0.000000     0.000000     0.000000
 
 Subroutine IBZKPT returns following result:
 ===========================================
 
 Found      8 irreducible k-points:
 
 Following reciprocal coordinates:
            Coordinates               Weight
  0.125000  0.125000  0.000000      2.000000
  0.375000  0.125000  0.000000      2.000000
 -0.375000  0.125000  0.000000      2.000000
 -0.125000  0.125000  0.000000      2.000000
  0.125000  0.375000  0.000000      2.000000
  0.375000  0.375000  0.000000      2.000000
 -0.375000  0.375000  0.000000      2.000000
 -0.125000  0.375000  0.000000      2.000000
 
 Following cartesian coordinates:
            Coordinates               Weight
  0.016233  0.016233  0.000000      2.000000
  0.048699  0.016233  0.000000      2.000000
 -0.048699  0.016233  0.000000      2.000000
 -0.016233  0.016233  0.000000      2.000000
  0.016233  0.048699  0.000000      2.000000
  0.048699  0.048699  0.000000      2.000000
 -0.048699  0.048699  0.000000      2.000000
 -0.016233  0.048699  0.000000      2.000000
 


--------------------------------------------------------------------------------------------------------




 Dimension of arrays:
   k-points           NKPTS =      8   k-points in BZ     NKDIM =      8   number of bands    NBANDS=    240
   number of dos      NEDOS =    301   number of ions     NIONS =     36
   non local maximal  LDIM  =      6   non local SUM 2l+1 LMDIM =     18
   total plane-waves  NPLWV = 294912
   max r-space proj   IRMAX =   2468   max aug-charges    IRDMAX=   6671
   dimension x,y,z NGX =    48 NGY =   48 NGZ =  128
   dimension x,y,z NGXF=    96 NGYF=   96 NGZF=  256
   support grid    NGXF=    96 NGYF=   96 NGZF=  256
   ions per type =              36
   NGX,Y,Z   is equivalent  to a cutoff of  10.36, 10.36,  9.56 a.u.
   NGXF,Y,Z  is equivalent  to a cutoff of  20.73, 20.73, 19.12 a.u.

 SYSTEM =  unknown system                          
 POSCAR =  Cu                                      

 Startparameter for this run:
   NWRITE =      2    write-flag & timer
   PREC   = normal    normal or accurate (medium, high low for compatibility)
   ISTART =      0    job   : 0-new  1-cont  2-samecut
   ICHARG =      2    charge: 1-file 2-atom 10-const
   ISPIN  =      1    spin polarized calculation?
   LNONCOLLINEAR =      F non collinear calculations
   LSORBIT =      F    spin-orbit coupling
   INIWAV =      1    electr: 0-lowe 1-rand  2-diag
   LASPH  =      F    aspherical Exc in radial PAW
   METAGGA=      F    non-selfconsistent MetaGGA calc.

 Electronic Relaxation 1
   ENCUT  =  544.0 eV  39.98 Ry    6.32 a.u.  14.64 14.64 42.33*2*pi/ulx,y,z
   ENINI  =  544.0     initial cutoff
   ENAUG  =  587.0 eV  augmentation charge cutoff
   NELM   =    400;   NELMIN=  2; NELMDL=-12     # of ELM steps 
   EDIFF  = 0.1E-04   stopping-criterion for ELM
   LREAL  =      T    real-space projection
   NLSPLINE    = F    spline interpolate recip. space projectors
   LCOMPAT=      F    compatible to vasp.4.4
   GGA_COMPAT  = T    GGA compatible to vasp.4.4-vasp.4.6
   LMAXPAW     = -100 max onsite density
   LMAXMIX     =    2 max onsite mixed and CHGCAR
   VOSKOWN=      1    Vosko Wilk Nusair interpolation
   ROPT   =   -0.00050
 Ionic relaxation
   EDIFFG = -.5E-01   stopping-criterion for IOM
   NSW    =      0    number of steps for IOM
   NBLOCK =      1;   KBLOCK =      1    inner block; outer block 
   IBRION =     -1    ionic relax: 0-MD 1-quasi-New 2-CG
   NFREE  =      0    steps in history (QN), initial steepest desc. (CG)
   ISIF   =      2    stress and relaxation
   IWAVPR =     10    prediction:  0-non 1-charg 2-wave 3-comb
   ISYM   =      0    0-nonsym 1-usesym 2-fastsym
   LCORR  =      T    Harris-Foulkes like correction to forces

   POTIM  = 0.5000    time-step for ionic-motion
   TEIN   =    0.0    initial temperature
   TEBEG  =    0.0;   TEEND  =   0.0 temperature during run
   SMASS  =  -3.00    Nose mass-parameter (am)
   estimated Nose-frequenzy (Omega)   =  0.10E-29 period in steps =****** mass=  -0.136E-26a.u.
   SCALEE = 1.0000    scale energy and forces
   NPACO  =    256;   APACO  = 16.0  distance and # of slots for P.C.
   PSTRESS=    0.0 pullay stress

  Mass of Ions in am
   POMASS =  63.55
  Ionic Valenz
   ZVAL   =  11.00
  Atomic Wigner-Seitz radii
   RWIGS  =  -1.00
  virtual crystal weights 
   VCA    =   1.00
   NELECT =     396.0000    total number of electrons
   NUPDOWN=      -1.0000    fix difference up-down

 DOS related values:
   EMIN   =  10.00;   EMAX   =-10.00  energy-range for DOS
   EFERMI =   0.00
   ISMEAR =     2;   SIGMA  =   0.20  broadening in eV -4-tet -1-fermi 0-gaus

 Electronic relaxation 2 (details)
   IALGO  =     48    algorithm
   LDIAG  =      T    sub-space diagonalisation (order eigenvalues)
   LSUBROT=      F    optimize rotation matrix (better conditioning)
   TURBO    =      0    0=normal 1=particle mesh
   IRESTART =      0    0=no restart 2=restart with 2 vectors
   NREBOOT  =      0    no. of reboots
   NMIN     =      0    reboot dimension
   EREF     =   0.00    reference energy to select bands
   IMIX   =      4    mixing-type and parameters
     AMIX     =   0.40;   BMIX     =  1.00
     AMIX_MAG =   1.60;   BMIX_MAG =  1.00
     AMIN     =   0.10
     WC   =   100.;   INIMIX=   1;  MIXPRE=   1;  MAXMIX= -45

 Intra band minimization:
   WEIMIN = 0.0000     energy-eigenvalue tresh-hold
   EBREAK =  0.10E-07  absolut break condition
   DEPER  =   0.30     relativ break condition  

   TIME   =   0.40     timestep for ELM

  volume/ion in A,a.u.               =      36.66       247.42
  Fermi-wavevector in a.u.,A,eV,Ry     =   1.095949  2.071043 16.342009  1.201104
  Thomas-Fermi vector in A             =   2.232282
 
 Write flags
   LWAVE        =      F    write WAVECAR
   LDOWNSAMPLE  =      F    k-point downsampling of WAVECAR
   LCHARG       =      F    write CHGCAR
   LVTOT        =      F    write LOCPOT, total local potential
   LVHAR        =      T    write LOCPOT, Hartree potential only
   LELF         =      F    write electronic localiz. function (ELF)
   LORBIT       =      0    0 simple, 1 ext, 2 COOP (PROOUT), +10 PAW based schemes


 Dipole corrections
   LMONO  =      F    monopole corrections only (constant potential shift)
   LDIPOL =      T    correct potential (dipole corrections)
   IDIPOL =      3    1-x, 2-y, 3-z, 4-all directions 
   EPSILON=  1.0000000 bulk dielectric constant

   EFIELD =  0.6000000 eV/A    external electric field

 Exchange correlation treatment:
   GGA     =    RP    GGA type
   LEXCH   =     9    internal setting for exchange type
   VOSKOWN=      1    Vosko Wilk Nusair interpolation
   LHFCALC =     F    Hartree Fock is set to
   LHFONE  =     F    Hartree Fock one center treatment
   AEXX    =    0.0000 exact exchange contribution

 Linear response parameters
   LEPSILON=     F    determine dielectric tensor
   LRPA    =     F    only Hartree local field effects (RPA)
   LNABLA  =     F    use nabla operator in PAW spheres
   LVEL    =     F    velocity operator in full k-point grid
   LINTERFAST=   F  fast interpolation
   KINTER  =     0    interpolate to denser k-point grid
   CSHIFT  =0.1000    complex shift for real part using Kramers Kronig
   OMEGAMAX=  -1.0    maximum frequency
   DEG_THRESHOLD= 0.2000000E-02 threshold for treating states as degnerate
   RTIME   =   -0.100 relaxation time in fs
  (WPLASMAI=    0.000 imaginary part of plasma frequency in eV, 0.658/RTIME)
   DFIELD  = 0.0000000 0.0000000 0.0000000 field for delta impulse in time
 
 Orbital magnetization related:
   ORBITALMAG=     F  switch on orbital magnetization
   LCHIMAG   =     F  perturbation theory with respect to B field
   DQ        =  0.001000  dq finite difference perturbation B field
   LLRAUG    =     F  two centre corrections for induced B field



--------------------------------------------------------------------------------------------------------


 Static calculation
 charge density and potential will be updated during run
 non-spin polarized calculation
 RMM-DIIS sequential band-by-band
 perform sub-space diagonalisation
    before iterative eigenvector-optimisation
 modified Broyden-mixing scheme, WC =      100.0
 initial mixing is a Kerker type mixing with AMIX =  0.4000 and BMIX =      1.0000
 Hartree-type preconditioning will be used
 using additional bands           42
 real space projection scheme for non local part
 use partial core corrections
 calculate Harris-corrections to forces 
   (improved forces if not selfconsistent)
 use gradient corrections 
 use of overlap-Matrix (Vanderbilt PP)
 Methfessel and Paxton  Order N= 2 SIGMA  =   0.20


--------------------------------------------------------------------------------------------------------


  energy-cutoff  :      544.00
  volume of cell :     1319.92
      direct lattice vectors                 reciprocal lattice vectors
     7.700375000  0.000000000  0.000000000     0.129863805  0.000000000  0.000000000
     0.000000000  7.700375000  0.000000000     0.000000000  0.129863805  0.000000000
     0.000000000  0.000000000 22.259998000     0.000000000  0.000000000  0.044923634

  length of vectors
     7.700375000  7.700375000 22.259998000     0.129863805  0.129863805  0.044923634


 
 k-points in units of 2pi/SCALE and weight: KPOINTS created by Atomic Simulation Env
   0.01623298  0.01623298  0.00000000       0.125
   0.04869893  0.01623298  0.00000000       0.125
  -0.04869893  0.01623298  0.00000000       0.125
  -0.01623298  0.01623298  0.00000000       0.125
   0.01623298  0.04869893  0.00000000       0.125
   0.04869893  0.04869893  0.00000000       0.125
  -0.04869893  0.04869893  0.00000000       0.125
  -0.01623298  0.04869893  0.00000000       0.125
 
 k-points in reciprocal lattice and weights: KPOINTS created by Atomic Simulation Env
   0.12500000  0.12500000  0.00000000       0.125
   0.37500000  0.12500000  0.00000000       0.125
  -0.37500000  0.12500000  0.00000000       0.125
  -0.12500000  0.12500000  0.00000000       0.125
   0.12500000  0.37500000  0.00000000       0.125
   0.37500000  0.37500000  0.00000000       0.125
  -0.37500000  0.37500000  0.00000000       0.125
  -0.12500000  0.37500000  0.00000000       0.125
 
 position of ions in fractional coordinates (direct lattice) 
   0.16666708  0.16666708  0.00000000
   0.50000110  0.16666708  0.00000000
   0.83333526  0.16666708  0.00000000
   0.16666708  0.50000110  0.00000000
   0.50000110  0.50000110  0.00000000
   0.83333526  0.50000110  0.00000000
   0.16666708  0.83333526  0.00000000
   0.50000110  0.83333526  0.00000000
   0.83333526  0.83333526  0.00000000
   0.00000000  0.00000000  0.08153640
   0.33333416  0.00000000  0.08153640
   0.66666818  0.00000000  0.08153640
   0.00000000  0.33333416  0.08153640
   0.33333416  0.33333416  0.08153640
   0.66666818  0.33333416  0.08153640
   0.00000000  0.66666818  0.08153640
   0.33333416  0.66666818  0.08153640
   0.66666818  0.66666818  0.08153640
   0.16749132  0.16755171  0.16633056
   0.50023135  0.16854569  0.16659426
   0.83382822  0.17046235  0.16772441
   0.16775183  0.49998007  0.16359364
   0.49814808  0.49989721  0.16238928
   0.83170417  0.50060588  0.16558160
   0.16698693  0.83269425  0.16625136
   0.49959450  0.83143159  0.16657733
   0.83341318  0.83126432  0.16761520
   0.00132513  0.00111748  0.24773960
   0.33395555  0.99946665  0.24757473
   0.66657143  0.00089502  0.24789836
   0.00244988  0.33616610  0.24967743
   0.33544626  0.33422567  0.25154063
   0.66548343  0.33587572  0.25168187
   0.00045024  0.66549733  0.24947307
   0.33368154  0.66454491  0.25157729
   0.66443608  0.66598536  0.25129167
 
 position of ions in cartesian coordinates  (Angst):
   1.28339900  1.28339900  0.00000000
   3.85019600  1.28339900  0.00000000
   6.41699400  1.28339900  0.00000000
   1.28339900  3.85019600  0.00000000
   3.85019600  3.85019600  0.00000000
   6.41699400  3.85019600  0.00000000
   1.28339900  6.41699400  0.00000000
   3.85019600  6.41699400  0.00000000
   6.41699400  6.41699400  0.00000000
   0.00000000  0.00000000  1.81500000
   2.56679800  0.00000000  1.81500000
   5.13359500  0.00000000  1.81500000
   0.00000000  2.56679800  1.81500000
   2.56679800  2.56679800  1.81500000
   5.13359500  2.56679800  1.81500000
   0.00000000  5.13359500  1.81500000
   2.56679800  5.13359500  1.81500000
   5.13359500  5.13359500  1.81500000
   1.28974600  1.29021100  3.70251800
   3.85196900  1.29786500  3.70838800
   6.42079000  1.31262400  3.73354500
   1.29175200  3.85003400  3.64159400
   3.83592700  3.84939600  3.61478500
   6.40443400  3.85485300  3.68584600
   1.28586200  6.41205800  3.70075500
   3.84706500  6.40233500  3.70801100
   6.41759400  6.40104700  3.73111400
   0.01020400  0.00860500  5.51468300
   2.57158300  7.69626800  5.51101300
   5.13285000  0.00689200  5.51821700
   0.01886500  2.58860500  5.55781900
   2.58306200  2.57366300  5.59929400
   5.12447200  2.58636900  5.60243800
   0.00346700  5.12457900  5.55327000
   2.56947300  5.11724500  5.60011000
   5.11640700  5.12833700  5.59375200
 


--------------------------------------------------------------------------------------------------------


 k-point  1 :   0.1250 0.1250 0.0000  plane waves:   38041
 k-point  2 :   0.3750 0.1250 0.0000  plane waves:   38040
 k-point  3 :  -0.3750 0.1250 0.0000  plane waves:   38040
 k-point  4 :  -0.1250 0.1250 0.0000  plane waves:   38041
 k-point  5 :   0.1250 0.3750 0.0000  plane waves:   38040
 k-point  6 :   0.3750 0.3750 0.0000  plane waves:   37996
 k-point  7 :  -0.3750 0.3750 0.0000  plane waves:   37996
 k-point  8 :  -0.1250 0.3750 0.0000  plane waves:   38040

 maximum and minimum number of plane-waves per node :     38041    37996

 maximum number of plane-waves:     38041
 maximum index in each direction: 
   IXMAX=   15   IYMAX=   14   IZMAX=   42
   IXMIN=  -15   IYMIN=  -15   IZMIN=  -42


 serial   3D FFT for wavefunctions
 parallel 3D FFT for charge:
    minimum data exchange during FFTs selected (reduces bandwidth)


 total amount of memory used by VASP MPI-rank0   144874. kBytes
=======================================================================

   base      :      30000. kBytes
   nonlr-proj:      14881. kBytes
   fftplans  :       6175. kBytes
   grid      :      18948. kBytes
   one-center:        559. kBytes
   wavefun   :      74311. kBytes
 
     INWAV:  cpu time    0.0000: real time    0.0002
 Broyden mixing: mesh for mixing (old mesh)
   NGX = 29   NGY = 29   NGZ = 85
  (NGX  = 96   NGY  = 96   NGZ  =256)
  gives a total of  71485 points

 initial charge density was supplied:
 charge density of overlapping atoms calculated
 number of electron     396.0000000 magnetization 
 keeping initial charge density in first step


--------------------------------------------------------------------------------------------------------


 Maximum index for non-local projection operator         2371
 Maximum index for augmentation-charges          404 (set IRDMAX)


--------------------------------------------------------------------------------------------------------


 First call to EWALD:  gamma=   0.162
 Maximum number of real-space cells 4x 4x 2
 Maximum number of reciprocal cells 2x 2x 5

    FEWALD:  cpu time    0.0017: real time    0.0017


--------------------------------------- Iteration      1(   1)  ---------------------------------------


    POTLOK:  cpu time    0.0861: real time    0.1592
    SETDIJ:  cpu time    0.0056: real time    0.0057
    EDDIAG:  cpu time    2.2345: real time    2.2596
  RMM-DIIS:  cpu time    3.4246: real time    3.4250
    ORTHCH:  cpu time    0.5752: real time    0.5754
       DOS:  cpu time    0.0014: real time    0.0014
    --------------------------------------------
      LOOP:  cpu time    6.3274: real time    6.4263

 eigenvalue-minimisations  :  1920
 total energy-change (2. order) : 0.3106788E+04  (-0.1585751E+05)
 number of electron     396.0000000 magnetization 
 augmentation part      396.0000000 magnetization 

 DIPCOR: dipole corrections for dipol
 direction  3 min pos   164,
 dipolmoment           0.000000      0.000000      0.000069 electrons x Angstroem
 Tr[quadrupol]     -4128.493775

 energy correction for charged system         0.000000 eV
 dipol+quadrupol energy correction           -0.000000 eV
 added-field ion interaction        -65.660878 eV  (added to PSCEN)


 Free energy of the ion-electron system (eV)
  ---------------------------------------------------
  alpha Z        PSCENC =       652.41171810
  Ewald energy   TEWEN  =    164226.44806453
  -Hartree energ DENC   =   -212025.95640762
  -exchange      EXHF   =         0.00000000
  -V(xc)+E(xc)   XCENC  =      1613.73814842
  PAW double counting   =     44243.50493509   -48017.47383163
  entropy T*S    EENTRO =        -0.01037791
  eigenvalues    EBANDS =      2376.20213181
  atomic energy  EATOM  =     50037.92390023
  Solvation  Ediel_sol  =         0.00000000
  ---------------------------------------------------
  free energy    TOTEN  =      3106.78828102 eV

  energy without entropy =     3106.79865892  energy(sigma->0) =     3106.79087549


--------------------------------------------------------------------------------------------------------




--------------------------------------- Iteration      1(   2)  ---------------------------------------


    EDDIAG:  cpu time    2.2025: real time    2.2037
  RMM-DIIS:  cpu time    3.2155: real time    3.2159
    ORTHCH:  cpu time    0.5762: real time    0.5762
       DOS:  cpu time    0.0010: real time    0.0010
    --------------------------------------------
      LOOP:  cpu time    5.9952: real time    5.9969

 eigenvalue-minimisations  :  1920
 total energy-change (2. order) :-0.2405856E+04  (-0.2715868E+04)
 number of electron     396.0000000 magnetization 
 augmentation part      396.0000000 magnetization 

 DIPCOR: dipole corrections for dipol
 direction  3 min pos   164,
 dipolmoment           0.000000      0.000000      0.000069 electrons x Angstroem
 Tr[quadrupol]     -4128.493775

 energy correction for charged system         0.000000 eV
 dipol+quadrupol energy correction           -0.000000 eV
 added-field ion interaction        -65.660878 eV  (added to PSCEN)


 Free energy of the ion-electron system (eV)
  ---------------------------------------------------
  alpha Z        PSCENC =       652.41171810
  Ewald energy   TEWEN  =    164226.44806453
  -Hartree energ DENC   =   -212025.95640762
  -exchange      EXHF   =         0.00000000
  -V(xc)+E(xc)   XCENC  =      1613.73814842
  PAW double counting   =     44243.50493509   -48017.47383163
  entropy T*S    EENTRO =        -0.01441110
  eigenvalues    EBANDS =       -29.64948016
  atomic energy  EATOM  =     50037.92390023
  Solvation  Ediel_sol  =         0.00000000
  ---------------------------------------------------
  free energy    TOTEN  =       700.93263587 eV

  energy without entropy =      700.94704696  energy(sigma->0) =      700.93623864


--------------------------------------------------------------------------------------------------------




--------------------------------------- Iteration      1(   3)  ---------------------------------------


    EDDIAG:  cpu time    2.2054: real time    2.2068
  RMM-DIIS:  cpu time    3.2821: real time    3.2838
    ORTHCH:  cpu time    0.5816: real time    0.5816
       DOS:  cpu time    0.0010: real time    0.0010
    --------------------------------------------
      LOOP:  cpu time    6.0700: real time    6.0733

 eigenvalue-minimisations  :  1920
 total energy-change (2. order) :-0.5358045E+03  (-0.5422929E+03)
 number of electron     396.0000000 magnetization 
 augmentation part      396.0000000 magnetization 

 DIPCOR: dipole corrections for dipol
 direction  3 min pos   164,
 dipolmoment           0.000000      0.000000      0.000069 electrons x Angstroem
 Tr[quadrupol]     -4128.493775

 energy correction for charged system         0.000000 eV
 dipol+quadrupol energy correction           -0.000000 eV
 added-field ion interaction        -65.660878 eV  (added to PSCEN)


 Free energy of the ion-electron system (eV)
  ---------------------------------------------------
  alpha Z        PSCENC =       652.41171810
  Ewald energy   TEWEN  =    164226.44806453
  -Hartree energ DENC   =   -212025.95640762
  -exchange      EXHF   =         0.00000000
  -V(xc)+E(xc)   XCENC  =      1613.73814842
  PAW double counting   =     44243.50493509   -48017.47383163
  entropy T*S    EENTRO =         0.04074069
  eigenvalues    EBANDS =      -565.50912046
  atomic energy  EATOM  =     50037.92390023
  Solvation  Ediel_sol  =         0.00000000
  ---------------------------------------------------
  free energy    TOTEN  =       165.12814735 eV

  energy without entropy =      165.08740665  energy(sigma->0) =      165.11796217


--------------------------------------------------------------------------------------------------------




--------------------------------------- Iteration      1(   4)  ---------------------------------------


    EDDIAG:  cpu time    2.2061: real time    2.2100
  RMM-DIIS:  cpu time    3.4102: real time    3.4106
    ORTHCH:  cpu time    0.5789: real time    0.5789
       DOS:  cpu time    0.0010: real time    0.0010
    --------------------------------------------
      LOOP:  cpu time    6.1962: real time    6.2006

 eigenvalue-minimisations  :  1920
 total energy-change (2. order) :-0.2136507E+03  (-0.9610882E+02)
 number of electron     396.0000000 magnetization 
 augmentation part      396.0000000 magnetization 

 DIPCOR: dipole corrections for dipol
 direction  3 min pos   164,
 dipolmoment           0.000000      0.000000      0.000069 electrons x Angstroem
 Tr[quadrupol]     -4128.493775

 energy correction for charged system         0.000000 eV
 dipol+quadrupol energy correction           -0.000000 eV
 added-field ion interaction        -65.660878 eV  (added to PSCEN)


 Free energy of the ion-electron system (eV)
  ---------------------------------------------------
  alpha Z        PSCENC =       652.41171810
  Ewald energy   TEWEN  =    164226.44806453
  -Hartree energ DENC   =   -212025.95640762
  -exchange      EXHF   =         0.00000000
  -V(xc)+E(xc)   XCENC  =      1613.73814842
  PAW double counting   =     44243.50493509   -48017.47383163
  entropy T*S    EENTRO =         0.01282041
  eigenvalues    EBANDS =      -779.13186750
  atomic energy  EATOM  =     50037.92390023
  Solvation  Ediel_sol  =         0.00000000
  ---------------------------------------------------
  free energy    TOTEN  =       -48.52251998 eV

  energy without entropy =      -48.53534038  energy(sigma->0) =      -48.52572508


--------------------------------------------------------------------------------------------------------




--------------------------------------- Iteration      1(   5)  ---------------------------------------


    EDDIAG:  cpu time    2.2058: real time    2.2067
  RMM-DIIS:  cpu time    3.2663: real time    3.2666
    ORTHCH:  cpu time    0.5805: real time    0.5805
       DOS:  cpu time    0.0010: real time    0.0010
    --------------------------------------------
      LOOP:  cpu time    6.0535: real time    6.0548

 eigenvalue-minimisations  :  1920
 total energy-change (2. order) :-0.5706199E+02  (-0.3636508E+02)
 number of electron     396.0000000 magnetization 
 augmentation part      396.0000000 magnetization 

 DIPCOR: dipole corrections for dipol
 direction  3 min pos   164,
 dipolmoment           0.000000      0.000000      0.000069 electrons x Angstroem
 Tr[quadrupol]     -4128.493775

 energy correction for charged system         0.000000 eV
 dipol+quadrupol energy correction           -0.000000 eV
 added-field ion interaction        -65.660878 eV  (added to PSCEN)


 Free energy of the ion-electron system (eV)
  ---------------------------------------------------
  alpha Z        PSCENC =       652.41171810
  Ewald energy   TEWEN  =    164226.44806453
  -Hartree energ DENC   =   -212025.95640762
  -exchange      EXHF   =         0.00000000
  -V(xc)+E(xc)   XCENC  =      1613.73814842
  PAW double counting   =     44243.50493509   -48017.47383163
  entropy T*S    EENTRO =        -0.01128310
  eigenvalues    EBANDS =      -836.16975310
  atomic energy  EATOM  =     50037.92390023
  Solvation  Ediel_sol  =         0.00000000
  ---------------------------------------------------
  free energy    TOTEN  =      -105.58450908 eV

  energy without entropy =     -105.57322598  energy(sigma->0) =     -105.58168831


--------------------------------------------------------------------------------------------------------




--------------------------------------- Iteration      1(   6)  ---------------------------------------


    EDDIAG:  cpu time    2.2166: real time    2.2176
  RMM-DIIS:  cpu time    3.4067: real time    3.4071
    ORTHCH:  cpu time    0.5778: real time    0.5779
       DOS:  cpu time    0.0010: real time    0.0010
    --------------------------------------------
      LOOP:  cpu time    6.2021: real time    6.2036

 eigenvalue-minimisations  :  1920
 total energy-change (2. order) :-0.2295514E+02  (-0.1763661E+02)
 number of electron     396.0000000 magnetization 
 augmentation part      396.0000000 magnetization 

 DIPCOR: dipole corrections for dipol
 direction  3 min pos   164,
 dipolmoment           0.000000      0.000000      0.000069 electrons x Angstroem
 Tr[quadrupol]     -4128.493775

 energy correction for charged system         0.000000 eV
 dipol+quadrupol energy correction           -0.000000 eV
 added-field ion interaction        -65.660878 eV  (added to PSCEN)


 Free energy of the ion-electron system (eV)
  ---------------------------------------------------
  alpha Z        PSCENC =       652.41171810
  Ewald energy   TEWEN  =    164226.44806453
  -Hartree energ DENC   =   -212025.95640762
  -exchange      EXHF   =         0.00000000
  -V(xc)+E(xc)   XCENC  =      1613.73814842
  PAW double counting   =     44243.50493509   -48017.47383163
  entropy T*S    EENTRO =         0.06187311
  eigenvalues    EBANDS =      -859.19805209
  atomic energy  EATOM  =     50037.92390023
  Solvation  Ediel_sol  =         0.00000000
  ---------------------------------------------------
  free energy    TOTEN  =      -128.53965186 eV

  energy without entropy =     -128.60152497  energy(sigma->0) =     -128.55512014


--------------------------------------------------------------------------------------------------------




--------------------------------------- Iteration      1(   7)  ---------------------------------------


    EDDIAG:  cpu time    2.2094: real time    2.2110
  RMM-DIIS:  cpu time    3.2648: real time    3.2653
    ORTHCH:  cpu time    0.5798: real time    0.5798
       DOS:  cpu time    0.0010: real time    0.0010
    --------------------------------------------
      LOOP:  cpu time    6.0550: real time    6.0571

 eigenvalue-minimisations  :  1920
 total energy-change (2. order) :-0.1194110E+02  (-0.1004461E+02)
 number of electron     396.0000000 magnetization 
 augmentation part      396.0000000 magnetization 

 DIPCOR: dipole corrections for dipol
 direction  3 min pos   164,
 dipolmoment           0.000000      0.000000      0.000069 electrons x Angstroem
 Tr[quadrupol]     -4128.493775

 energy correction for charged system         0.000000 eV
 dipol+quadrupol energy correction           -0.000000 eV
 added-field ion interaction        -65.660878 eV  (added to PSCEN)


 Free energy of the ion-electron system (eV)
  ---------------------------------------------------
  alpha Z        PSCENC =       652.41171810
  Ewald energy   TEWEN  =    164226.44806453
  -Hartree energ DENC   =   -212025.95640762
  -exchange      EXHF   =         0.00000000
  -V(xc)+E(xc)   XCENC  =      1613.73814842
  PAW double counting   =     44243.50493509   -48017.47383163
  entropy T*S    EENTRO =        -0.03065522
  eigenvalues    EBANDS =      -871.04662660
  atomic energy  EATOM  =     50037.92390023
  Solvation  Ediel_sol  =         0.00000000
  ---------------------------------------------------
  free energy    TOTEN  =      -140.48075471 eV

  energy without entropy =     -140.45009949  energy(sigma->0) =     -140.47309090


--------------------------------------------------------------------------------------------------------




--------------------------------------- Iteration      1(   8)  ---------------------------------------


    EDDIAG:  cpu time    2.2070: real time    2.2084
  RMM-DIIS:  cpu time    3.2629: real time    3.2649
    ORTHCH:  cpu time    0.5788: real time    0.5788
       DOS:  cpu time    0.0010: real time    0.0010
    --------------------------------------------
      LOOP:  cpu time    6.0496: real time    6.0532

 eigenvalue-minimisations  :  1920
 total energy-change (2. order) :-0.6573711E+01  (-0.5549107E+01)
 number of electron     396.0000000 magnetization 
 augmentation part      396.0000000 magnetization 

 DIPCOR: dipole corrections for dipol
 direction  3 min pos   164,
 dipolmoment           0.000000      0.000000      0.000069 electrons x Angstroem
 Tr[quadrupol]     -4128.493775

 energy correction for charged system         0.000000 eV
 dipol+quadrupol energy correction           -0.000000 eV
 added-field ion interaction        -65.660878 eV  (added to PSCEN)


 Free energy of the ion-electron system (eV)
  ---------------------------------------------------
  alpha Z        PSCENC =       652.41171810
  Ewald energy   TEWEN  =    164226.44806453
  -Hartree energ DENC   =   -212025.95640762
  -exchange      EXHF   =         0.00000000
  -V(xc)+E(xc)   XCENC  =      1613.73814842
  PAW double counting   =     44243.50493509   -48017.47383163
  entropy T*S    EENTRO =        -0.06188683
  eigenvalues    EBANDS =      -877.58910563
  atomic energy  EATOM  =     50037.92390023
  Solvation  Ediel_sol  =         0.00000000
  ---------------------------------------------------
  free energy    TOTEN  =      -147.05446534 eV

  energy without entropy =     -146.99257851  energy(sigma->0) =     -147.03899363


--------------------------------------------------------------------------------------------------------




--------------------------------------- Iteration      1(   9)  ---------------------------------------


    EDDIAG:  cpu time    2.2117: real time    2.2143
  RMM-DIIS:  cpu time    9.5000: real time    9.5010
    ORTHCH:  cpu time    0.5831: real time    0.5832
       DOS:  cpu time    0.0010: real time    0.0010
    --------------------------------------------
      LOOP:  cpu time   12.2958: real time   12.2996

 eigenvalue-minimisations  :  5832
 total energy-change (2. order) :-0.7712273E+01  (-0.7234172E+01)
 number of electron     396.0000000 magnetization 
 augmentation part      396.0000000 magnetization 

 DIPCOR: dipole corrections for dipol
 direction  3 min pos   164,
 dipolmoment           0.000000      0.000000      0.000069 electrons x Angstroem
 Tr[quadrupol]     -4128.493775

 energy correction for charged system         0.000000 eV
 dipol+quadrupol energy correction           -0.000000 eV
 added-field ion interaction        -65.660878 eV  (added to PSCEN)


 Free energy of the ion-electron system (eV)
  ---------------------------------------------------
  alpha Z        PSCENC =       652.41171810
  Ewald energy   TEWEN  =    164226.44806453
  -Hartree energ DENC   =   -212025.95640762
  -exchange      EXHF   =         0.00000000
  -V(xc)+E(xc)   XCENC  =      1613.73814842
  PAW double counting   =     44243.50493509   -48017.47383163
  entropy T*S    EENTRO =        -0.15550249
  eigenvalues    EBANDS =      -885.20776276
  atomic energy  EATOM  =     50037.92390023
  Solvation  Ediel_sol  =         0.00000000
  ---------------------------------------------------
  free energy    TOTEN  =      -154.76673813 eV

  energy without entropy =     -154.61123564  energy(sigma->0) =     -154.72786251


--------------------------------------------------------------------------------------------------------




--------------------------------------- Iteration      1(  10)  ---------------------------------------


    EDDIAG:  cpu time    2.2074: real time    2.2080
  RMM-DIIS:  cpu time    6.7905: real time    6.7916
    ORTHCH:  cpu time    0.5817: real time    0.5817
       DOS:  cpu time    0.0010: real time    0.0010
    --------------------------------------------
      LOOP:  cpu time    9.5806: real time    9.5823

 eigenvalue-minimisations  :  4257
 total energy-change (2. order) :-0.4269577E+00  (-0.3095265E+00)
 number of electron     396.0000000 magnetization 
 augmentation part      396.0000000 magnetization 

 DIPCOR: dipole corrections for dipol
 direction  3 min pos   164,
 dipolmoment           0.000000      0.000000      0.000069 electrons x Angstroem
 Tr[quadrupol]     -4128.493775

 energy correction for charged system         0.000000 eV
 dipol+quadrupol energy correction           -0.000000 eV
 added-field ion interaction        -65.660878 eV  (added to PSCEN)


 Free energy of the ion-electron system (eV)
  ---------------------------------------------------
  alpha Z        PSCENC =       652.41171810
  Ewald energy   TEWEN  =    164226.44806453
  -Hartree energ DENC   =   -212025.95640762
  -exchange      EXHF   =         0.00000000
  -V(xc)+E(xc)   XCENC  =      1613.73814842
  PAW double counting   =     44243.50493509   -48017.47383163
  entropy T*S    EENTRO =        -0.08772662
  eigenvalues    EBANDS =      -885.70249638
  atomic energy  EATOM  =     50037.92390023
  Solvation  Ediel_sol  =         0.00000000
  ---------------------------------------------------
  free energy    TOTEN  =      -155.19369587 eV

  energy without entropy =     -155.10596926  energy(sigma->0) =     -155.17176422


--------------------------------------------------------------------------------------------------------




--------------------------------------- Iteration      1(  11)  ---------------------------------------


    EDDIAG:  cpu time    2.2139: real time    2.2157
  RMM-DIIS:  cpu time    9.3915: real time    9.3952
    ORTHCH:  cpu time    0.5821: real time    0.5821
       DOS:  cpu time    0.0010: real time    0.0010
    --------------------------------------------
      LOOP:  cpu time   12.1886: real time   12.1941

 eigenvalue-minimisations  :  5845
 total energy-change (2. order) :-0.1766634E+00  (-0.1455111E+00)
 number of electron     396.0000000 magnetization 
 augmentation part      396.0000000 magnetization 

 DIPCOR: dipole corrections for dipol
 direction  3 min pos   164,
 dipolmoment           0.000000      0.000000      0.000069 electrons x Angstroem
 Tr[quadrupol]     -4128.493775

 energy correction for charged system         0.000000 eV
 dipol+quadrupol energy correction           -0.000000 eV
 added-field ion interaction        -65.660878 eV  (added to PSCEN)


 Free energy of the ion-electron system (eV)
  ---------------------------------------------------
  alpha Z        PSCENC =       652.41171810
  Ewald energy   TEWEN  =    164226.44806453
  -Hartree energ DENC   =   -212025.95640762
  -exchange      EXHF   =         0.00000000
  -V(xc)+E(xc)   XCENC  =      1613.73814842
  PAW double counting   =     44243.50493509   -48017.47383163
  entropy T*S    EENTRO =        -0.08711970
  eigenvalues    EBANDS =      -885.87976670
  atomic energy  EATOM  =     50037.92390023
  Solvation  Ediel_sol  =         0.00000000
  ---------------------------------------------------
  free energy    TOTEN  =      -155.37035928 eV

  energy without entropy =     -155.28323958  energy(sigma->0) =     -155.34857935


--------------------------------------------------------------------------------------------------------




--------------------------------------- Iteration      1(  12)  ---------------------------------------


    EDDIAG:  cpu time    2.1979: real time    2.1995
  RMM-DIIS:  cpu time    6.7772: real time    6.7777
    ORTHCH:  cpu time    0.5770: real time    0.5770
       DOS:  cpu time    0.0010: real time    0.0010
    CHARGE:  cpu time    0.5988: real time    0.5989
    MIXING:  cpu time    0.0041: real time    0.0041
    --------------------------------------------
      LOOP:  cpu time   10.1560: real time   10.1583

 eigenvalue-minimisations  :  4257
 total energy-change (2. order) :-0.4156676E-02  (-0.2461996E-02)
 number of electron     395.9998249 magnetization 
 augmentation part      230.3735655 magnetization 

 DIPCOR: dipole corrections for dipol
 direction  3 min pos   164,
 dipolmoment           0.000000      0.000000      0.000069 electrons x Angstroem
 Tr[quadrupol]     -4128.493775

 energy correction for charged system         0.000000 eV
 dipol+quadrupol energy correction           -0.000000 eV
 added-field ion interaction        -65.660878 eV  (added to PSCEN)


 Broyden mixing:
  rms(total) = 0.63976E+01    rms(broyden)= 0.63975E+01
  rms(prec ) = 0.81974E+01
  weight for this iteration     100.00

 Free energy of the ion-electron system (eV)
  ---------------------------------------------------
  alpha Z        PSCENC =       652.41171810
  Ewald energy   TEWEN  =    164226.44806453
  -Hartree energ DENC   =   -212025.95640762
  -exchange      EXHF   =         0.00000000
  -V(xc)+E(xc)   XCENC  =      1613.73814842
  PAW double counting   =     44243.50493509   -48017.47383163
  entropy T*S    EENTRO =        -0.08677216
  eigenvalues    EBANDS =      -885.88427091
  atomic energy  EATOM  =     50037.92390023
  Solvation  Ediel_sol  =         0.00000000
  ---------------------------------------------------
  free energy    TOTEN  =      -155.37451595 eV

  energy without entropy =     -155.28774379  energy(sigma->0) =     -155.35282291


--------------------------------------------------------------------------------------------------------




--------------------------------------- Iteration      1(  13)  ---------------------------------------


    POTLOK:  cpu time    0.0738: real time    0.0753
    SETDIJ:  cpu time    0.0055: real time    0.0055
    EDDIAG:  cpu time    2.2107: real time    2.2109
  RMM-DIIS:  cpu time   10.4857: real time   10.4866
    ORTHCH:  cpu time    0.5845: real time    0.5845
       DOS:  cpu time    0.0010: real time    0.0010
    CHARGE:  cpu time    0.5547: real time    0.5558
    MIXING:  cpu time    0.0030: real time    0.0045
    --------------------------------------------
      LOOP:  cpu time   13.9187: real time   13.9241

 eigenvalue-minimisations  :  6458
 total energy-change (2. order) :-0.5797098E+03  (-0.2702247E+03)
 number of electron     395.9997838 magnetization 
 augmentation part      245.7967844 magnetization 

 DIPCOR: dipole corrections for dipol
 direction  3 min pos   163,
 dipolmoment           0.000000      0.000000     13.060643 electrons x Angstroem
 Tr[quadrupol]     -4113.202586

 energy correction for charged system         0.000000 eV
 dipol+quadrupol energy correction          -11.691569 eV
 added-field ion interaction         89.294430 eV  (added to PSCEN)


 Broyden mixing:
  rms(total) = 0.10951E+02    rms(broyden)= 0.10950E+02
  rms(prec ) = 0.14612E+02
  weight for this iteration     100.00

 eigenvalues of (default mixing * dielectric matrix)
  average eigenvalue GAMMA=   0.3194
  0.3194

 Free energy of the ion-electron system (eV)
  ---------------------------------------------------
  alpha Z        PSCENC =       795.67545763
  Ewald energy   TEWEN  =    164226.44806453
  -Hartree energ DENC   =   -210392.37474554
  -exchange      EXHF   =         0.00000000
  -V(xc)+E(xc)   XCENC  =      1557.40280119
  PAW double counting   =     43899.70651095   -47444.75367509
  entropy T*S    EENTRO =        -0.05714606
  eigenvalues    EBANDS =     -3415.05544409
  atomic energy  EATOM  =     50037.92390023
  Solvation  Ediel_sol  =         0.00000000
  ---------------------------------------------------
  free energy    TOTEN  =      -735.08427624 eV

  energy without entropy =     -735.02713019  energy(sigma->0) =     -735.06998973


--------------------------------------------------------------------------------------------------------




--------------------------------------- Iteration      1(  14)  ---------------------------------------


    POTLOK:  cpu time    0.0697: real time    0.0717
    SETDIJ:  cpu time    0.0054: real time    0.0054
    EDDIAG:  cpu time    2.1972: real time    2.1974
  RMM-DIIS:  cpu time    6.8471: real time    6.8495
    ORTHCH:  cpu time    0.5764: real time    0.5764
       DOS:  cpu time    0.0010: real time    0.0010
    CHARGE:  cpu time    0.5714: real time    0.5714
    MIXING:  cpu time    0.0028: real time    0.0028
    --------------------------------------------
      LOOP:  cpu time   10.2708: real time   10.2754

 eigenvalue-minimisations  :  4305
 total energy-change (2. order) : 0.4699064E+03  (-0.8661963E+02)
 number of electron     395.9997906 magnetization 
 augmentation part      256.4534198 magnetization 

 DIPCOR: dipole corrections for dipol
 direction  3 min pos   174,
 dipolmoment           0.000000      0.000000      5.693688 electrons x Angstroem
 Tr[quadrupol]     -4127.169897

 energy correction for charged system         0.000000 eV
 dipol+quadrupol energy correction           -2.221933 eV
 added-field ion interaction         81.939070 eV  (added to PSCEN)


 Broyden mixing:
  rms(total) = 0.75128E+01    rms(broyden)= 0.75123E+01
  rms(prec ) = 0.93276E+01
  weight for this iteration     100.00

 eigenvalues of (default mixing * dielectric matrix)
  average eigenvalue GAMMA=   0.3298
  0.3298  0.3298

 Free energy of the ion-electron system (eV)
  ---------------------------------------------------
  alpha Z        PSCENC =       797.78973300
  Ewald energy   TEWEN  =    164226.44806453
  -Hartree energ DENC   =   -210503.43622518
  -exchange      EXHF   =         0.00000000
  -V(xc)+E(xc)   XCENC  =      1553.91412694
  PAW double counting   =     44017.33075799   -47620.02305763
  entropy T*S    EENTRO =        -0.09222201
  eigenvalues    EBANDS =     -2775.03292232
  atomic energy  EATOM  =     50037.92390023
  Solvation  Ediel_sol  =         0.00000000
  ---------------------------------------------------
  free energy    TOTEN  =      -265.17784446 eV

  energy without entropy =     -265.08562245  energy(sigma->0) =     -265.15478896


--------------------------------------------------------------------------------------------------------




--------------------------------------- Iteration      1(  15)  ---------------------------------------


    POTLOK:  cpu time    0.0687: real time    0.0694
    SETDIJ:  cpu time    0.0049: real time    0.0049
    EDDIAG:  cpu time    2.2010: real time    2.2011
  RMM-DIIS:  cpu time    6.9377: real time    6.9384
    ORTHCH:  cpu time    0.5685: real time    0.5685
       DOS:  cpu time    0.0010: real time    0.0010
    CHARGE:  cpu time    0.5760: real time    0.5760
    MIXING:  cpu time    0.0031: real time    0.0031
    --------------------------------------------
      LOOP:  cpu time   10.3609: real time   10.3624

 eigenvalue-minimisations  :  4240
 total energy-change (2. order) : 0.1150906E+03  (-0.2582285E+02)
 number of electron     395.9997925 magnetization 
 augmentation part      264.9386871 magnetization 

 DIPCOR: dipole corrections for dipol
 direction  3 min pos   179,
 dipolmoment           0.000000      0.000000      3.719266 electrons x Angstroem
 Tr[quadrupol]     -4121.755245

 energy correction for charged system         0.000000 eV
 dipol+quadrupol energy correction           -0.948109 eV
 added-field ion interaction        -56.402577 eV  (added to PSCEN)


 Broyden mixing:
  rms(total) = 0.37453E+01    rms(broyden)= 0.37449E+01
  rms(prec ) = 0.41745E+01
  weight for this iteration     100.00

 eigenvalues of (default mixing * dielectric matrix)
  average eigenvalue GAMMA=   0.3572
  0.3741  0.3741  0.3232

 Free energy of the ion-electron system (eV)
  ---------------------------------------------------
  alpha Z        PSCENC =       660.72191105
  Ewald energy   TEWEN  =    164226.44806453
  -Hartree energ DENC   =   -210410.71068861
  -exchange      EXHF   =         0.00000000
  -V(xc)+E(xc)   XCENC  =      1558.96701261
  PAW double counting   =     44197.78733535   -47862.49453049
  entropy T*S    EENTRO =        -0.01130501
  eigenvalues    EBANDS =     -2558.71896399
  atomic energy  EATOM  =     50037.92390023
  Solvation  Ediel_sol  =         0.00000000
  ---------------------------------------------------
  free energy    TOTEN  =      -150.08726435 eV

  energy without entropy =     -150.07595934  energy(sigma->0) =     -150.08443810


--------------------------------------------------------------------------------------------------------




--------------------------------------- Iteration      1(  16)  ---------------------------------------


    POTLOK:  cpu time    0.0680: real time    0.0688
    SETDIJ:  cpu time    0.0050: real time    0.0050
    EDDIAG:  cpu time    2.2103: real time    2.2106
  RMM-DIIS:  cpu time    7.1640: real time    7.1656
    ORTHCH:  cpu time    0.5805: real time    0.5805
       DOS:  cpu time    0.0009: real time    0.0009
    CHARGE:  cpu time    0.5618: real time    0.5619
    MIXING:  cpu time    0.0029: real time    0.0029
    --------------------------------------------
      LOOP:  cpu time   10.5934: real time   10.5962

 eigenvalue-minimisations  :  4245
 total energy-change (2. order) : 0.2932671E+02  (-0.8465559E+01)
 number of electron     395.9997932 magnetization 
 augmentation part      259.4771636 magnetization 

 DIPCOR: dipole corrections for dipol
 direction  3 min pos   181,
 dipolmoment           0.000000      0.000000      3.488293 electrons x Angstroem
 Tr[quadrupol]     -4124.026238

 energy correction for charged system         0.000000 eV
 dipol+quadrupol energy correction           -0.834007 eV
 added-field ion interaction        -84.609181 eV  (added to PSCEN)


 Broyden mixing:
  rms(total) = 0.18483E+01    rms(broyden)= 0.18482E+01
  rms(prec ) = 0.23766E+01
  weight for this iteration     100.00

 eigenvalues of (default mixing * dielectric matrix)
  average eigenvalue GAMMA=   0.4667
  0.6221  0.6221  0.3113  0.3113

 Free energy of the ion-electron system (eV)
  ---------------------------------------------------
  alpha Z        PSCENC =       632.62940914
  Ewald energy   TEWEN  =    164226.44806453
  -Hartree energ DENC   =   -210725.72979133
  -exchange      EXHF   =         0.00000000
  -V(xc)+E(xc)   XCENC  =      1571.27113354
  PAW double counting   =     44714.24394060   -48470.40300201
  entropy T*S    EENTRO =        -0.04249393
  eigenvalues    EBANDS =     -2107.10171542
  atomic energy  EATOM  =     50037.92390023
  Solvation  Ediel_sol  =         0.00000000
  ---------------------------------------------------
  free energy    TOTEN  =      -120.76055465 eV

  energy without entropy =     -120.71806072  energy(sigma->0) =     -120.74993117


--------------------------------------------------------------------------------------------------------




--------------------------------------- Iteration      1(  17)  ---------------------------------------


    POTLOK:  cpu time    0.0693: real time    0.0706
    SETDIJ:  cpu time    0.0050: real time    0.0050
    EDDIAG:  cpu time    2.2025: real time    2.2047
  RMM-DIIS:  cpu time    7.0001: real time    7.0008
    ORTHCH:  cpu time    0.5731: real time    0.5732
       DOS:  cpu time    0.0010: real time    0.0010
    CHARGE:  cpu time    0.5856: real time    0.5856
    MIXING:  cpu time    0.0033: real time    0.0033
    --------------------------------------------
      LOOP:  cpu time   10.4399: real time   10.4441

 eigenvalue-minimisations  :  4249
 total energy-change (2. order) : 0.8935324E+01  (-0.2675773E+01)
 number of electron     395.9997981 magnetization 
 augmentation part      254.7380350 magnetization 

 DIPCOR: dipole corrections for dipol
 direction  3 min pos   180,
 dipolmoment           0.000000      0.000000      2.954816 electrons x Angstroem
 Tr[quadrupol]     -4124.229200

 energy correction for charged system         0.000000 eV
 dipol+quadrupol energy correction           -0.598418 eV
 added-field ion interaction       -128.713520 eV  (added to PSCEN)


 Broyden mixing:
  rms(total) = 0.99429E+00    rms(broyden)= 0.99426E+00
  rms(prec ) = 0.12962E+01
  weight for this iteration     100.00

 eigenvalues of (default mixing * dielectric matrix)
  average eigenvalue GAMMA=   0.4855
  0.7317  0.7317  0.3278  0.3278  0.3083

 Free energy of the ion-electron system (eV)
  ---------------------------------------------------
  alpha Z        PSCENC =       588.76065811
  Ewald energy   TEWEN  =    164226.44806453
  -Hartree energ DENC   =   -211014.08624305
  -exchange      EXHF   =         0.00000000
  -V(xc)+E(xc)   XCENC  =      1580.16354036
  PAW double counting   =     45261.31030447   -49069.23259093
  entropy T*S    EENTRO =        -0.00862719
  eigenvalues    EBANDS =     -1723.10423743
  atomic energy  EATOM  =     50037.92390023
  Solvation  Ediel_sol  =         0.00000000
  ---------------------------------------------------
  free energy    TOTEN  =      -111.82523091 eV

  energy without entropy =     -111.81660372  energy(sigma->0) =     -111.82307411


--------------------------------------------------------------------------------------------------------




--------------------------------------- Iteration      1(  18)  ---------------------------------------


    POTLOK:  cpu time    0.0709: real time    0.0717
    SETDIJ:  cpu time    0.0053: real time    0.0053
    EDDIAG:  cpu time    2.2061: real time    2.2063
  RMM-DIIS:  cpu time    6.9225: real time    6.9231
    ORTHCH:  cpu time    0.5826: real time    0.5826
       DOS:  cpu time    0.0009: real time    0.0009
    CHARGE:  cpu time    0.5766: real time    0.5767
    MIXING:  cpu time    0.0033: real time    0.0033
    --------------------------------------------
      LOOP:  cpu time   10.3680: real time   10.3699

 eigenvalue-minimisations  :  4369
 total energy-change (2. order) : 0.1868019E+01  (-0.7894017E+00)
 number of electron     395.9997993 magnetization 
 augmentation part      253.5926137 magnetization 

 DIPCOR: dipole corrections for dipol
 direction  3 min pos   179,
 dipolmoment           0.000000      0.000000      2.717397 electrons x Angstroem
 Tr[quadrupol]     -4124.192184

 energy correction for charged system         0.000000 eV
 dipol+quadrupol energy correction           -0.506116 eV
 added-field ion interaction       -142.375620 eV  (added to PSCEN)


 Broyden mixing:
  rms(total) = 0.58713E+00    rms(broyden)= 0.58712E+00
  rms(prec ) = 0.76572E+00
  weight for this iteration     100.00

 eigenvalues of (default mixing * dielectric matrix)
  average eigenvalue GAMMA=   0.5584
  0.9268  0.6637  0.6637  0.3280  0.3280  0.4402

 Free energy of the ion-electron system (eV)
  ---------------------------------------------------
  alpha Z        PSCENC =       575.19086023
  Ewald energy   TEWEN  =    164226.44806453
  -Hartree energ DENC   =   -211107.07185668
  -exchange      EXHF   =         0.00000000
  -V(xc)+E(xc)   XCENC  =      1582.29564316
  PAW double counting   =     45520.51268555   -49341.23733056
  entropy T*S    EENTRO =         0.03065097
  eigenvalues    EBANDS =     -1604.04982945
  atomic energy  EATOM  =     50037.92390023
  Solvation  Ediel_sol  =         0.00000000
  ---------------------------------------------------
  free energy    TOTEN  =      -109.95721203 eV

  energy without entropy =     -109.98786300  energy(sigma->0) =     -109.96487477


--------------------------------------------------------------------------------------------------------




--------------------------------------- Iteration      1(  19)  ---------------------------------------


    POTLOK:  cpu time    0.0688: real time    0.0694
    SETDIJ:  cpu time    0.0052: real time    0.0052
    EDDIAG:  cpu time    2.2102: real time    2.2104
  RMM-DIIS:  cpu time    6.8913: real time    6.8930
    ORTHCH:  cpu time    0.5821: real time    0.5822
       DOS:  cpu time    0.0009: real time    0.0009
    CHARGE:  cpu time    0.5908: real time    0.5909
    MIXING:  cpu time    0.0032: real time    0.0032
    --------------------------------------------
      LOOP:  cpu time   10.3526: real time   10.3551

 eigenvalue-minimisations  :  4242
 total energy-change (2. order) : 0.8926935E+00  (-0.3050025E+00)
 number of electron     395.9998005 magnetization 
 augmentation part      253.1678132 magnetization 

 DIPCOR: dipole corrections for dipol
 direction  3 min pos   178,
 dipolmoment           0.000000      0.000000      2.382832 electrons x Angstroem
 Tr[quadrupol]     -4125.127804

 energy correction for charged system         0.000000 eV
 dipol+quadrupol energy correction           -0.389162 eV
 added-field ion interaction       -161.674011 eV  (added to PSCEN)


 Broyden mixing:
  rms(total) = 0.29361E+00    rms(broyden)= 0.29360E+00
  rms(prec ) = 0.34992E+00
  weight for this iteration     100.00

 eigenvalues of (default mixing * dielectric matrix)
  average eigenvalue GAMMA=   0.6122
  1.2015  0.7711  0.7711  0.3370  0.3370  0.4340  0.4340

 Free energy of the ion-electron system (eV)
  ---------------------------------------------------
  alpha Z        PSCENC =       556.00942377
  Ewald energy   TEWEN  =    164226.44806453
  -Hartree energ DENC   =   -211200.49136372
  -exchange      EXHF   =         0.00000000
  -V(xc)+E(xc)   XCENC  =      1582.70885711
  PAW double counting   =     45881.78098247   -49711.68105962
  entropy T*S    EENTRO =         0.03032678
  eigenvalues    EBANDS =     -1481.79365007
  atomic energy  EATOM  =     50037.92390023
  Solvation  Ediel_sol  =         0.00000000
  ---------------------------------------------------
  free energy    TOTEN  =      -109.06451852 eV

  energy without entropy =     -109.09484530  energy(sigma->0) =     -109.07210021


--------------------------------------------------------------------------------------------------------




--------------------------------------- Iteration      1(  20)  ---------------------------------------


    POTLOK:  cpu time    0.0700: real time    0.0717
    SETDIJ:  cpu time    0.0051: real time    0.0051
    EDDIAG:  cpu time    2.1990: real time    2.2008
  RMM-DIIS:  cpu time    6.8143: real time    6.8150
    ORTHCH:  cpu time    0.5752: real time    0.5753
       DOS:  cpu time    0.0009: real time    0.0009
    CHARGE:  cpu time    0.5873: real time    0.5873
    MIXING:  cpu time    0.0032: real time    0.0032
    --------------------------------------------
      LOOP:  cpu time   10.2550: real time   10.2593

 eigenvalue-minimisations  :  4188
 total energy-change (2. order) : 0.1744234E+00  (-0.1028635E+00)
 number of electron     395.9997999 magnetization 
 augmentation part      253.9941965 magnetization 

 DIPCOR: dipole corrections for dipol
 direction  3 min pos   177,
 dipolmoment           0.000000      0.000000      2.356044 electrons x Angstroem
 Tr[quadrupol]     -4126.552075

 energy correction for charged system         0.000000 eV
 dipol+quadrupol energy correction           -0.380461 eV
 added-field ion interaction       -154.308262 eV  (added to PSCEN)


 Broyden mixing:
  rms(total) = 0.21880E+00    rms(broyden)= 0.21880E+00
  rms(prec ) = 0.26003E+00
  weight for this iteration     100.00

 eigenvalues of (default mixing * dielectric matrix)
  average eigenvalue GAMMA=   0.7348
  1.5873  1.2304  0.7958  0.7958  0.3358  0.3358  0.3987  0.3987

 Free energy of the ion-electron system (eV)
  ---------------------------------------------------
  alpha Z        PSCENC =       563.38387320
  Ewald energy   TEWEN  =    164226.44806453
  -Hartree energ DENC   =   -211225.26074279
  -exchange      EXHF   =         0.00000000
  -V(xc)+E(xc)   XCENC  =      1580.89448334
  PAW double counting   =     46020.44402290   -49850.23535894
  entropy T*S    EENTRO =         0.03273466
  eigenvalues    EBANDS =     -1462.52107226
  atomic energy  EATOM  =     50037.92390023
  Solvation  Ediel_sol  =         0.00000000
  ---------------------------------------------------
  free energy    TOTEN  =      -108.89009514 eV

  energy without entropy =     -108.92282980  energy(sigma->0) =     -108.89827880


--------------------------------------------------------------------------------------------------------




--------------------------------------- Iteration      1(  21)  ---------------------------------------


    POTLOK:  cpu time    0.0679: real time    0.0693
    SETDIJ:  cpu time    0.0053: real time    0.0053
    EDDIAG:  cpu time    2.2079: real time    2.2081
  RMM-DIIS:  cpu time    6.7959: real time    6.7965
    ORTHCH:  cpu time    0.5779: real time    0.5780
       DOS:  cpu time    0.0009: real time    0.0009
    CHARGE:  cpu time    0.5939: real time    0.5940
    MIXING:  cpu time    0.0037: real time    0.0037
    --------------------------------------------
      LOOP:  cpu time   10.2533: real time   10.2557

 eigenvalue-minimisations  :  4234
 total energy-change (2. order) :-0.1143209E+00  (-0.6625695E-01)
 number of electron     395.9997993 magnetization 
 augmentation part      254.4682197 magnetization 

 DIPCOR: dipole corrections for dipol
 direction  3 min pos   177,
 dipolmoment           0.000000      0.000000      2.354253 electrons x Angstroem
 Tr[quadrupol]     -4130.624075

 energy correction for charged system         0.000000 eV
 dipol+quadrupol energy correction           -0.379883 eV
 added-field ion interaction       -154.445007 eV  (added to PSCEN)


 Broyden mixing:
  rms(total) = 0.34930E+00    rms(broyden)= 0.34930E+00
  rms(prec ) = 0.43575E+00
  weight for this iteration     100.00

 eigenvalues of (default mixing * dielectric matrix)
  average eigenvalue GAMMA=   0.7415
  1.8845  1.2606  0.7956  0.7956  0.3330  0.3330  0.4444  0.4444  0.3824

 Free energy of the ion-electron system (eV)
  ---------------------------------------------------
  alpha Z        PSCENC =       563.24770634
  Ewald energy   TEWEN  =    164226.44806453
  -Hartree energ DENC   =   -211324.08405710
  -exchange      EXHF   =         0.00000000
  -V(xc)+E(xc)   XCENC  =      1579.56457042
  PAW double counting   =     46293.17192321   -50129.17058989
  entropy T*S    EENTRO =         0.02212872
  eigenvalues    EBANDS =     -1356.12806255
  atomic energy  EATOM  =     50037.92390023
  Solvation  Ediel_sol  =         0.00000000
  ---------------------------------------------------
  free energy    TOTEN  =      -109.00441609 eV

  energy without entropy =     -109.02654481  energy(sigma->0) =     -109.00994827


--------------------------------------------------------------------------------------------------------




--------------------------------------- Iteration      1(  22)  ---------------------------------------


    POTLOK:  cpu time    0.0689: real time    0.0693
    SETDIJ:  cpu time    0.0050: real time    0.0050
    EDDIAG:  cpu time    2.2029: real time    2.2032
  RMM-DIIS:  cpu time    6.5680: real time    6.5699
    ORTHCH:  cpu time    0.5758: real time    0.5759
       DOS:  cpu time    0.0009: real time    0.0009
    CHARGE:  cpu time    0.5822: real time    0.5823
    MIXING:  cpu time    0.0045: real time    0.0045
    --------------------------------------------
      LOOP:  cpu time   10.0083: real time   10.0109

 eigenvalue-minimisations  :  4118
 total energy-change (2. order) : 0.2951771E+00  (-0.1869222E-01)
 number of electron     395.9997996 magnetization 
 augmentation part      254.0920831 magnetization 

 DIPCOR: dipole corrections for dipol
 direction  3 min pos   177,
 dipolmoment           0.000000      0.000000      2.243093 electrons x Angstroem
 Tr[quadrupol]     -4131.507744

 energy correction for charged system         0.000000 eV
 dipol+quadrupol energy correction           -0.344856 eV
 added-field ion interaction       -162.934499 eV  (added to PSCEN)


 Broyden mixing:
  rms(total) = 0.21557E+00    rms(broyden)= 0.21557E+00
  rms(prec ) = 0.27370E+00
  weight for this iteration     100.00

 eigenvalues of (default mixing * dielectric matrix)
  average eigenvalue GAMMA=   0.7964
  1.7950  1.7950  0.8223  0.8223  0.6912  0.3341  0.3341  0.5072  0.4313  0.4313

 Free energy of the ion-electron system (eV)
  ---------------------------------------------------
  alpha Z        PSCENC =       554.79324087
  Ewald energy   TEWEN  =    164226.44806453
  -Hartree energ DENC   =   -211375.54714166
  -exchange      EXHF   =         0.00000000
  -V(xc)+E(xc)   XCENC  =      1580.31828523
  PAW double counting   =     46371.11958420   -50210.44225175
  entropy T*S    EENTRO =         0.01457757
  eigenvalues    EBANDS =     -1293.33749817
  atomic energy  EATOM  =     50037.92390023
  Solvation  Ediel_sol  =         0.00000000
  ---------------------------------------------------
  free energy    TOTEN  =      -108.70923896 eV

  energy without entropy =     -108.72381653  energy(sigma->0) =     -108.71288336


--------------------------------------------------------------------------------------------------------




--------------------------------------- Iteration      1(  23)  ---------------------------------------


    POTLOK:  cpu time    0.0689: real time    0.0710
    SETDIJ:  cpu time    0.0052: real time    0.0052
    EDDIAG:  cpu time    2.2026: real time    2.2028
  RMM-DIIS:  cpu time    6.6123: real time    6.6129
    ORTHCH:  cpu time    0.5794: real time    0.5794
       DOS:  cpu time    0.0009: real time    0.0009
    CHARGE:  cpu time    0.5892: real time    0.5893
    MIXING:  cpu time    0.0038: real time    0.0038
    --------------------------------------------
      LOOP:  cpu time   10.0624: real time   10.0653

 eigenvalue-minimisations  :  4113
 total energy-change (2. order) : 0.1315291E+00  (-0.9882790E-02)
 number of electron     395.9997998 magnetization 
 augmentation part      253.8996284 magnetization 

 DIPCOR: dipole corrections for dipol
 direction  3 min pos   176,
 dipolmoment           0.000000      0.000000      2.162028 electrons x Angstroem
 Tr[quadrupol]     -4131.968696

 energy correction for charged system         0.000000 eV
 dipol+quadrupol energy correction           -0.320381 eV
 added-field ion interaction       -158.671634 eV  (added to PSCEN)


 Broyden mixing:
  rms(total) = 0.12960E+00    rms(broyden)= 0.12960E+00
  rms(prec ) = 0.16701E+00
  weight for this iteration     100.00

 eigenvalues of (default mixing * dielectric matrix)
  average eigenvalue GAMMA=   0.8883
  2.2569  2.2569  0.8467  0.8467  0.8113  0.8113  0.3340  0.3340  0.4362  0.4362
  0.4013

 Free energy of the ion-electron system (eV)
  ---------------------------------------------------
  alpha Z        PSCENC =       559.08058177
  Ewald energy   TEWEN  =    164226.44806453
  -Hartree energ DENC   =   -211414.12333143
  -exchange      EXHF   =         0.00000000
  -V(xc)+E(xc)   XCENC  =      1580.82759407
  PAW double counting   =     46376.07783670   -50215.33997621
  entropy T*S    EENTRO =         0.01138987
  eigenvalues    EBANDS =     -1259.48376941
  atomic energy  EATOM  =     50037.92390023
  Solvation  Ediel_sol  =         0.00000000
  ---------------------------------------------------
  free energy    TOTEN  =      -108.57770989 eV

  energy without entropy =     -108.58909975  energy(sigma->0) =     -108.58055735


--------------------------------------------------------------------------------------------------------




--------------------------------------- Iteration      1(  24)  ---------------------------------------


    POTLOK:  cpu time    0.0700: real time    0.0702
    SETDIJ:  cpu time    0.0050: real time    0.0050
    EDDIAG:  cpu time    2.2106: real time    2.2108
  RMM-DIIS:  cpu time    6.6009: real time    6.6015
    ORTHCH:  cpu time    0.5799: real time    0.5799
       DOS:  cpu time    0.0009: real time    0.0009
    CHARGE:  cpu time    0.5966: real time    0.5967
    MIXING:  cpu time    0.0043: real time    0.0043
    --------------------------------------------
      LOOP:  cpu time   10.0680: real time   10.0692

 eigenvalue-minimisations  :  4125
 total energy-change (2. order) : 0.7063591E-01  (-0.7003981E-02)
 number of electron     395.9997999 magnetization 
 augmentation part      253.7439872 magnetization 

 DIPCOR: dipole corrections for dipol
 direction  3 min pos   175,
 dipolmoment           0.000000      0.000000      2.071145 electrons x Angstroem
 Tr[quadrupol]     -4133.323677

 energy correction for charged system         0.000000 eV
 dipol+quadrupol energy correction           -0.294012 eV
 added-field ion interaction       -154.300506 eV  (added to PSCEN)


 Broyden mixing:
  rms(total) = 0.78167E-01    rms(broyden)= 0.78166E-01
  rms(prec ) = 0.10882E+00
  weight for this iteration     100.00

 eigenvalues of (default mixing * dielectric matrix)
  average eigenvalue GAMMA=   0.9141
  2.4790  2.4790  0.8446  0.8446  0.9357  0.9357  0.3341  0.3341  0.4819  0.4819
  0.4090  0.4090

 Free energy of the ion-electron system (eV)
  ---------------------------------------------------
  alpha Z        PSCENC =       563.47807901
  Ewald energy   TEWEN  =    164226.44806453
  -Hartree energ DENC   =   -211473.30121016
  -exchange      EXHF   =         0.00000000
  -V(xc)+E(xc)   XCENC  =      1581.20222467
  PAW double counting   =     46401.02810503   -50240.91661224
  entropy T*S    EENTRO =         0.00399778
  eigenvalues    EBANDS =     -1204.37362281
  atomic energy  EATOM  =     50037.92390023
  Solvation  Ediel_sol  =         0.00000000
  ---------------------------------------------------
  free energy    TOTEN  =      -108.50707397 eV

  energy without entropy =     -108.51107175  energy(sigma->0) =     -108.50807342


--------------------------------------------------------------------------------------------------------




--------------------------------------- Iteration      1(  25)  ---------------------------------------


    POTLOK:  cpu time    0.0703: real time    0.1864
    SETDIJ:  cpu time    0.0053: real time    0.0053
    EDDIAG:  cpu time    2.2070: real time    2.2072
  RMM-DIIS:  cpu time    6.6185: real time    6.6200
    ORTHCH:  cpu time    0.5760: real time    0.5760
       DOS:  cpu time    0.0009: real time    0.0009
    CHARGE:  cpu time    0.5898: real time    0.5916
    MIXING:  cpu time    0.0044: real time    0.0044
    --------------------------------------------
      LOOP:  cpu time   10.0722: real time   10.1918

 eigenvalue-minimisations  :  4141
 total energy-change (2. order) : 0.3225838E-01  (-0.3855312E-02)
 number of electron     395.9998001 magnetization 
 augmentation part      253.6116990 magnetization 

 DIPCOR: dipole corrections for dipol
 direction  3 min pos   174,
 dipolmoment           0.000000      0.000000      1.990126 electrons x Angstroem
 Tr[quadrupol]     -4134.101200

 energy correction for charged system         0.000000 eV
 dipol+quadrupol energy correction           -0.271459 eV
 added-field ion interaction       -148.457736 eV  (added to PSCEN)


 Broyden mixing:
  rms(total) = 0.44242E-01    rms(broyden)= 0.44241E-01
  rms(prec ) = 0.57941E-01
  weight for this iteration     100.00

 eigenvalues of (default mixing * dielectric matrix)
  average eigenvalue GAMMA=   0.9402
  2.6268  2.6268  1.0943  1.0943  0.8455  0.8455  0.7223  0.3341  0.3341  0.4410
  0.4410  0.4083  0.4083

 Free energy of the ion-electron system (eV)
  ---------------------------------------------------
  alpha Z        PSCENC =       569.34340069
  Ewald energy   TEWEN  =    164226.44806453
  -Hartree energ DENC   =   -211511.87385454
  -exchange      EXHF   =         0.00000000
  -V(xc)+E(xc)   XCENC  =      1581.44685922
  PAW double counting   =     46416.50249262   -50257.24240061
  entropy T*S    EENTRO =        -0.00269263
  eigenvalues    EBANDS =     -1171.02058510
  atomic energy  EATOM  =     50037.92390023
  Solvation  Ediel_sol  =         0.00000000
  ---------------------------------------------------
  free energy    TOTEN  =      -108.47481559 eV

  energy without entropy =     -108.47212296  energy(sigma->0) =     -108.47414243


--------------------------------------------------------------------------------------------------------




--------------------------------------- Iteration      1(  26)  ---------------------------------------


    POTLOK:  cpu time    0.0701: real time    0.0721
    SETDIJ:  cpu time    0.0050: real time    0.0050
    EDDIAG:  cpu time    2.2031: real time    2.2033
  RMM-DIIS:  cpu time    6.9127: real time    6.9133
    ORTHCH:  cpu time    0.5763: real time    0.5764
       DOS:  cpu time    0.0009: real time    0.0009
    CHARGE:  cpu time    0.6020: real time    0.6020
    MIXING:  cpu time    0.0045: real time    0.0246
    --------------------------------------------
      LOOP:  cpu time   10.3746: real time   10.3976

 eigenvalue-minimisations  :  4276
 total energy-change (2. order) : 0.1165859E-01  (-0.1758080E-02)
 number of electron     395.9998001 magnetization 
 augmentation part      253.5699879 magnetization 

 DIPCOR: dipole corrections for dipol
 direction  3 min pos   172,
 dipolmoment           0.000000      0.000000      1.917009 electrons x Angstroem
 Tr[quadrupol]     -4134.491348

 energy correction for charged system         0.000000 eV
 dipol+quadrupol energy correction           -0.251879 eV
 added-field ion interaction       -129.785216 eV  (added to PSCEN)


 Broyden mixing:
  rms(total) = 0.23322E-01    rms(broyden)= 0.23321E-01
  rms(prec ) = 0.31745E-01
  weight for this iteration     100.00

 eigenvalues of (default mixing * dielectric matrix)
  average eigenvalue GAMMA=   1.0370
  3.1751  3.1751  1.2548  1.0864  1.0864  0.8415  0.8415  0.6648  0.3341  0.3341
  0.4480  0.4480  0.4140  0.4140

 Free energy of the ion-electron system (eV)
  ---------------------------------------------------
  alpha Z        PSCENC =       588.03550101
  Ewald energy   TEWEN  =    164226.44806453
  -Hartree energ DENC   =   -211540.84236690
  -exchange      EXHF   =         0.00000000
  -V(xc)+E(xc)   XCENC  =      1581.52091374
  PAW double counting   =     46413.88985301   -50254.87731021
  entropy T*S    EENTRO =        -0.00767241
  eigenvalues    EBANDS =     -1160.55404000
  atomic energy  EATOM  =     50037.92390023
  Solvation  Ediel_sol  =         0.00000000
  ---------------------------------------------------
  free energy    TOTEN  =      -108.46315700 eV

  energy without entropy =     -108.45548459  energy(sigma->0) =     -108.46123890


--------------------------------------------------------------------------------------------------------




--------------------------------------- Iteration      1(  27)  ---------------------------------------


    POTLOK:  cpu time    0.0713: real time    0.0730
    SETDIJ:  cpu time    0.0051: real time    0.0051
    EDDIAG:  cpu time    2.2043: real time    2.2046
  RMM-DIIS:  cpu time    6.8088: real time    6.8095
    ORTHCH:  cpu time    0.5771: real time    0.5772
       DOS:  cpu time    0.0009: real time    0.0009
    CHARGE:  cpu time    0.5982: real time    0.5983
    MIXING:  cpu time    0.0051: real time    0.0051
    --------------------------------------------
      LOOP:  cpu time   10.2709: real time   10.2736

 eigenvalue-minimisations  :  4052
 total energy-change (2. order) : 0.3602315E-02  (-0.7277757E-03)
 number of electron     395.9998001 magnetization 
 augmentation part      253.6345504 magnetization 

 DIPCOR: dipole corrections for dipol
 direction  3 min pos   172,
 dipolmoment           0.000000      0.000000      1.880631 electrons x Angstroem
 Tr[quadrupol]     -4135.441021

 energy correction for charged system         0.000000 eV
 dipol+quadrupol energy correction           -0.242410 eV
 added-field ion interaction       -131.704796 eV  (added to PSCEN)


 Broyden mixing:
  rms(total) = 0.16587E-01    rms(broyden)= 0.16587E-01
  rms(prec ) = 0.21671E-01
  weight for this iteration     100.00

 eigenvalues of (default mixing * dielectric matrix)
  average eigenvalue GAMMA=   1.1042
  3.5331  3.5331  1.6969  1.1265  1.1265  0.8411  0.8411  0.9110  0.3341  0.3341
  0.4998  0.4998  0.4367  0.4367  0.4130

 Free energy of the ion-electron system (eV)
  ---------------------------------------------------
  alpha Z        PSCENC =       586.12538993
  Ewald energy   TEWEN  =    164226.44806453
  -Hartree energ DENC   =   -211558.26536740
  -exchange      EXHF   =         0.00000000
  -V(xc)+E(xc)   XCENC  =      1581.42805136
  PAW double counting   =     46392.88896644   -50233.36951861
  entropy T*S    EENTRO =        -0.00789201
  eigenvalues    EBANDS =     -1141.63114915
  atomic energy  EATOM  =     50037.92390023
  Solvation  Ediel_sol  =         0.00000000
  ---------------------------------------------------
  free energy    TOTEN  =      -108.45955468 eV

  energy without entropy =     -108.45166268  energy(sigma->0) =     -108.45758168


--------------------------------------------------------------------------------------------------------




--------------------------------------- Iteration      1(  28)  ---------------------------------------


    POTLOK:  cpu time    0.0709: real time    0.0723
    SETDIJ:  cpu time    0.0052: real time    0.0052
    EDDIAG:  cpu time    2.2013: real time    2.2015
  RMM-DIIS:  cpu time    6.5733: real time    6.5755
    ORTHCH:  cpu time    0.5800: real time    0.5812
       DOS:  cpu time    0.0009: real time    0.0009
    CHARGE:  cpu time    0.5897: real time    0.5898
    MIXING:  cpu time    0.0053: real time    0.0053
    --------------------------------------------
      LOOP:  cpu time   10.0267: real time   10.0317

 eigenvalue-minimisations  :  4000
 total energy-change (2. order) : 0.1112899E-02  (-0.3137371E-03)
 number of electron     395.9998001 magnetization 
 augmentation part      253.6303051 magnetization 

 DIPCOR: dipole corrections for dipol
 direction  3 min pos   177,
 dipolmoment           0.000000      0.000000      1.853876 electrons x Angstroem
 Tr[quadrupol]     -4138.020217

 energy correction for charged system         0.000000 eV
 dipol+quadrupol energy correction           -0.235562 eV
 added-field ion interaction       -192.659513 eV  (added to PSCEN)


 Broyden mixing:
  rms(total) = 0.18978E-01    rms(broyden)= 0.18978E-01
  rms(prec ) = 0.27742E-01
  weight for this iteration     100.00

 eigenvalues of (default mixing * dielectric matrix)
  average eigenvalue GAMMA=   1.1242
  3.7518  3.7518  1.8154  1.1971  1.0967  1.0967  0.8416  0.8416  0.3341  0.3341
  0.5993  0.5765  0.4428  0.4428  0.4482  0.4161

 Free energy of the ion-electron system (eV)
  ---------------------------------------------------
  alpha Z        PSCENC =       525.17752152
  Ewald energy   TEWEN  =    164226.44806453
  -Hartree energ DENC   =   -211578.72540164
  -exchange      EXHF   =         0.00000000
  -V(xc)+E(xc)   XCENC  =      1581.43174382
  PAW double counting   =     46394.95540573   -50235.79423600
  entropy T*S    EENTRO =        -0.00872707
  eigenvalues    EBANDS =     -1059.86671289
  atomic energy  EATOM  =     50037.92390023
  Solvation  Ediel_sol  =         0.00000000
  ---------------------------------------------------
  free energy    TOTEN  =      -108.45844178 eV

  energy without entropy =     -108.44971471  energy(sigma->0) =     -108.45626002


--------------------------------------------------------------------------------------------------------




--------------------------------------- Iteration      1(  29)  ---------------------------------------


    POTLOK:  cpu time    0.0700: real time    0.0715
    SETDIJ:  cpu time    0.0051: real time    0.0051
    EDDIAG:  cpu time    2.2013: real time    2.2015
  RMM-DIIS:  cpu time    6.6572: real time    6.6578
    ORTHCH:  cpu time    0.5768: real time    0.5769
       DOS:  cpu time    0.0010: real time    0.0010
    CHARGE:  cpu time    0.5965: real time    0.5966
    MIXING:  cpu time    0.0052: real time    0.0052
    --------------------------------------------
      LOOP:  cpu time   10.1131: real time   10.1155

 eigenvalue-minimisations  :  4092
 total energy-change (2. order) : 0.9018170E-03  (-0.6223300E-04)
 number of electron     395.9998001 magnetization 
 augmentation part      253.6242456 magnetization 

 DIPCOR: dipole corrections for dipol
 direction  3 min pos   179,
 dipolmoment           0.000000      0.000000      1.837371 electrons x Angstroem
 Tr[quadrupol]     -4138.856320

 energy correction for charged system         0.000000 eV
 dipol+quadrupol energy correction           -0.231386 eV
 added-field ion interaction       -217.893057 eV  (added to PSCEN)


 Broyden mixing:
  rms(total) = 0.14719E-01    rms(broyden)= 0.14719E-01
  rms(prec ) = 0.18703E-01
  weight for this iteration     100.00

 eigenvalues of (default mixing * dielectric matrix)
  average eigenvalue GAMMA=   1.2264
  5.3747  3.4607  2.4406  1.4094  1.1029  1.1029  0.8410  0.8410  0.8562  0.3341
  0.3341  0.5211  0.5211  0.4390  0.4390  0.4157  0.4157

 Free energy of the ion-electron system (eV)
  ---------------------------------------------------
  alpha Z        PSCENC =       499.94815289
  Ewald energy   TEWEN  =    164226.44806453
  -Hartree energ DENC   =   -211582.01987502
  -exchange      EXHF   =         0.00000000
  -V(xc)+E(xc)   XCENC  =      1581.43976931
  PAW double counting   =     46396.35039885   -50237.25973064
  entropy T*S    EENTRO =        -0.00874226
  eigenvalues    EBANDS =     -1031.27947786
  atomic energy  EATOM  =     50037.92390023
  Solvation  Ediel_sol  =         0.00000000
  ---------------------------------------------------
  free energy    TOTEN  =      -108.45753997 eV

  energy without entropy =     -108.44879771  energy(sigma->0) =     -108.45535440


--------------------------------------------------------------------------------------------------------




--------------------------------------- Iteration      1(  30)  ---------------------------------------


    POTLOK:  cpu time    0.0693: real time    0.0704
    SETDIJ:  cpu time    0.0052: real time    0.0052
    EDDIAG:  cpu time    2.2022: real time    2.2024
  RMM-DIIS:  cpu time    6.5121: real time    6.5127
    ORTHCH:  cpu time    0.5733: real time    0.5733
       DOS:  cpu time    0.0009: real time    0.0009
    CHARGE:  cpu time    0.5981: real time    0.5982
    MIXING:  cpu time    0.0055: real time    0.0055
    --------------------------------------------
      LOOP:  cpu time    9.9667: real time    9.9686

 eigenvalue-minimisations  :  4055
 total energy-change (2. order) : 0.1422378E-03  (-0.2179872E-03)
 number of electron     395.9998001 magnetization 
 augmentation part      253.5953167 magnetization 

 DIPCOR: dipole corrections for dipol
 direction  3 min pos   178,
 dipolmoment           0.000000      0.000000      1.788791 electrons x Angstroem
 Tr[quadrupol]     -4138.922662

 energy correction for charged system         0.000000 eV
 dipol+quadrupol energy correction           -0.219312 eV
 added-field ion interaction       -209.846010 eV  (added to PSCEN)


 Broyden mixing:
  rms(total) = 0.68998E-02    rms(broyden)= 0.68990E-02
  rms(prec ) = 0.16816E-01
  weight for this iteration     100.00

 eigenvalues of (default mixing * dielectric matrix)
  average eigenvalue GAMMA=   1.2498
  5.1184  3.6807  2.6416  1.6935  1.1557  1.1557  0.8407  0.8407  0.9383  0.9383
  0.6321  0.3341  0.3341  0.4538  0.4538  0.4135  0.4354  0.4354

 Free energy of the ion-electron system (eV)
  ---------------------------------------------------
  alpha Z        PSCENC =       508.00727375
  Ewald energy   TEWEN  =    164226.44806453
  -Hartree energ DENC   =   -211590.10963544
  -exchange      EXHF   =         0.00000000
  -V(xc)+E(xc)   XCENC  =      1581.48045356
  PAW double counting   =     46405.07737881   -50246.29680358
  entropy T*S    EENTRO =        -0.00986585
  eigenvalues    EBANDS =     -1030.97816373
  atomic energy  EATOM  =     50037.92390023
  Solvation  Ediel_sol  =         0.00000000
  ---------------------------------------------------
  free energy    TOTEN  =      -108.45739773 eV

  energy without entropy =     -108.44753188  energy(sigma->0) =     -108.45493127


--------------------------------------------------------------------------------------------------------




--------------------------------------- Iteration      1(  31)  ---------------------------------------


    POTLOK:  cpu time    0.0696: real time    0.0699
    SETDIJ:  cpu time    0.0061: real time    0.0061
    EDDIAG:  cpu time    2.2091: real time    2.2092
  RMM-DIIS:  cpu time    6.7371: real time    6.7405
    ORTHCH:  cpu time    0.5773: real time    0.5773
       DOS:  cpu time    0.0009: real time    0.0009
    CHARGE:  cpu time    0.5991: real time    0.5991
    MIXING:  cpu time    0.0055: real time    0.0055
    --------------------------------------------
      LOOP:  cpu time   10.2047: real time   10.2086

 eigenvalue-minimisations  :  4165
 total energy-change (2. order) :-0.2892100E-02  (-0.1462842E-03)
 number of electron     395.9998001 magnetization 
 augmentation part      253.5967459 magnetization 

 DIPCOR: dipole corrections for dipol
 direction  3 min pos   160,
 dipolmoment           0.000000      0.000000      1.692060 electrons x Angstroem
 Tr[quadrupol]     -4133.860456

 energy correction for charged system         0.000000 eV
 dipol+quadrupol energy correction           -0.196234 eV
 added-field ion interaction         10.414157 eV  (added to PSCEN)


 Broyden mixing:
  rms(total) = 0.15445E-01    rms(broyden)= 0.15445E-01
  rms(prec ) = 0.35608E-01
  weight for this iteration     100.00

 eigenvalues of (default mixing * dielectric matrix)
  average eigenvalue GAMMA=   1.1841
  5.1170  3.6821  2.6408  1.6938  1.1554  1.1554  0.8407  0.8407  0.9381  0.9381
  0.6320  0.3341  0.3341  0.4537  0.4537  0.4135  0.4355  0.4355  0.0032

 Free energy of the ion-electron system (eV)
  ---------------------------------------------------
  alpha Z        PSCENC =       728.29051860
  Ewald energy   TEWEN  =    164226.44806453
  -Hartree energ DENC   =   -211594.70699231
  -exchange      EXHF   =         0.00000000
  -V(xc)+E(xc)   XCENC  =      1581.46143725
  PAW double counting   =     46408.65797450   -50250.00509009
  entropy T*S    EENTRO =        -0.01144784
  eigenvalues    EBANDS =     -1246.51865470
  atomic energy  EATOM  =     50037.92390023
  Solvation  Ediel_sol  =         0.00000000
  ---------------------------------------------------
  free energy    TOTEN  =      -108.46028983 eV

  energy without entropy =     -108.44884199  energy(sigma->0) =     -108.45742787


--------------------------------------------------------------------------------------------------------




--------------------------------------- Iteration      1(  32)  ---------------------------------------


    POTLOK:  cpu time    0.0683: real time    0.0699
    SETDIJ:  cpu time    0.0050: real time    0.0050
    EDDIAG:  cpu time    2.2020: real time    2.2021
  RMM-DIIS:  cpu time    7.1803: real time    7.1809
    ORTHCH:  cpu time    0.5800: real time    0.5801
       DOS:  cpu time    0.0009: real time    0.0009
    CHARGE:  cpu time    0.5766: real time    0.5766
    MIXING:  cpu time    0.0060: real time    0.0060
    --------------------------------------------
      LOOP:  cpu time   10.6191: real time   10.6215

 eigenvalue-minimisations  :  4410
 total energy-change (2. order) :-0.4155802E-02  (-0.7990068E-04)
 number of electron     395.9998002 magnetization 
 augmentation part      253.5967867 magnetization 

 DIPCOR: dipole corrections for dipol
 direction  3 min pos   151,
 dipolmoment           0.000000      0.000000      1.643290 electrons x Angstroem
 Tr[quadrupol]     -4131.270201

 energy correction for charged system         0.000000 eV
 dipol+quadrupol energy correction           -0.185085 eV
 added-field ion interaction        126.727510 eV  (added to PSCEN)


 Broyden mixing:
  rms(total) = 0.22717E-01    rms(broyden)= 0.22717E-01
  rms(prec ) = 0.52761E-01
  weight for this iteration     100.00

 eigenvalues of (default mixing * dielectric matrix)
  average eigenvalue GAMMA=   1.2583
  5.5182  4.3796  2.5486  2.0535  0.6287  1.1489  1.1489  0.8409  0.8409  1.0844
  0.9445  0.3341  0.3341  0.5867  0.5867  0.4524  0.4524  0.4136  0.4342  0.4342

 Free energy of the ion-electron system (eV)
  ---------------------------------------------------
  alpha Z        PSCENC =       844.61502097
  Ewald energy   TEWEN  =    164226.44806453
  -Hartree energ DENC   =   -211594.90193816
  -exchange      EXHF   =         0.00000000
  -V(xc)+E(xc)   XCENC  =      1581.45560798
  PAW double counting   =     46408.63551462   -50249.99587377
  entropy T*S    EENTRO =        -0.01230025
  eigenvalues    EBANDS =     -1362.63244177
  atomic energy  EATOM  =     50037.92390023
  Solvation  Ediel_sol  =         0.00000000
  ---------------------------------------------------
  free energy    TOTEN  =      -108.46444563 eV

  energy without entropy =     -108.45214538  energy(sigma->0) =     -108.46137057


--------------------------------------------------------------------------------------------------------




--------------------------------------- Iteration      1(  33)  ---------------------------------------


    POTLOK:  cpu time    0.0665: real time    0.0681
    SETDIJ:  cpu time    0.0051: real time    0.0051
    EDDIAG:  cpu time    2.1975: real time    2.1977
  RMM-DIIS:  cpu time    6.9267: real time    6.9273
    ORTHCH:  cpu time    0.5800: real time    0.5800
       DOS:  cpu time    0.0009: real time    0.0009
    CHARGE:  cpu time    0.5758: real time    0.5759
    MIXING:  cpu time    0.0065: real time    0.0065
    --------------------------------------------
      LOOP:  cpu time   10.3590: real time   10.3615

 eigenvalue-minimisations  :  4289
 total energy-change (2. order) :-0.9683025E-02  (-0.1136849E-03)
 number of electron     395.9998002 magnetization 
 augmentation part      253.5950551 magnetization 

 DIPCOR: dipole corrections for dipol
 direction  3 min pos   149,
 dipolmoment           0.000000      0.000000      1.617613 electrons x Angstroem
 Tr[quadrupol]     -4130.933121

 energy correction for charged system         0.000000 eV
 dipol+quadrupol energy correction           -0.179347 eV
 added-field ion interaction        153.965813 eV  (added to PSCEN)


 Broyden mixing:
  rms(total) = 0.33929E-01    rms(broyden)= 0.33929E-01
  rms(prec ) = 0.80664E-01
  weight for this iteration     100.00

 eigenvalues of (default mixing * dielectric matrix)
  average eigenvalue GAMMA=   1.2503
  5.4863  4.5905  2.5124  2.1918  0.8712  1.1514  1.1514  1.1161  0.8407  0.8407
  0.9509  0.6889  0.3341  0.3341  0.5205  0.5205  0.4495  0.4495  0.4092  0.4236
  0.4236

 Free energy of the ion-electron system (eV)
  ---------------------------------------------------
  alpha Z        PSCENC =       871.85906273
  Ewald energy   TEWEN  =    164226.44806453
  -Hartree energ DENC   =   -211597.36226145
  -exchange      EXHF   =         0.00000000
  -V(xc)+E(xc)   XCENC  =      1581.45816581
  PAW double counting   =     46407.87307574   -50249.14736108
  entropy T*S    EENTRO =        -0.01323194
  eigenvalues    EBANDS =     -1387.51354323
  atomic energy  EATOM  =     50037.92390023
  Solvation  Ediel_sol  =         0.00000000
  ---------------------------------------------------
  free energy    TOTEN  =      -108.47412866 eV

  energy without entropy =     -108.46089672  energy(sigma->0) =     -108.47082067


--------------------------------------------------------------------------------------------------------




--------------------------------------- Iteration      1(  34)  ---------------------------------------


    POTLOK:  cpu time    0.0704: real time    0.0710
    SETDIJ:  cpu time    0.0053: real time    0.0053
    EDDIAG:  cpu time    2.2029: real time    2.2031
  RMM-DIIS:  cpu time    7.1783: real time    7.1805
    ORTHCH:  cpu time    0.5775: real time    0.5775
       DOS:  cpu time    0.0009: real time    0.0009
    CHARGE:  cpu time    0.5955: real time    0.5955
    MIXING:  cpu time    0.0065: real time    0.0064
    --------------------------------------------
      LOOP:  cpu time   10.6371: real time   10.6402

 eigenvalue-minimisations  :  4458
 total energy-change (2. order) :-0.1121320E-01  (-0.9688267E-04)
 number of electron     395.9998002 magnetization 
 augmentation part      253.5905223 magnetization 

 DIPCOR: dipole corrections for dipol
 direction  3 min pos   148,
 dipolmoment           0.000000      0.000000      1.601471 electrons x Angstroem
 Tr[quadrupol]     -4130.726489

 energy correction for charged system         0.000000 eV
 dipol+quadrupol energy correction           -0.175785 eV
 added-field ion interaction        167.966740 eV  (added to PSCEN)


 Broyden mixing:
  rms(total) = 0.43689E-01    rms(broyden)= 0.43689E-01
  rms(prec ) = 0.10461E+00
  weight for this iteration     100.00

 eigenvalues of (default mixing * dielectric matrix)
  average eigenvalue GAMMA=   1.2337
  5.0343  5.0343  2.3992  2.3992  1.0810  1.2269  1.2269  1.0016  1.0016  0.8405
  0.8405  0.7026  0.5007  0.5007  0.3341  0.3341  0.4837  0.4837  0.4375  0.4375
  0.4199  0.4199

 Free energy of the ion-electron system (eV)
  ---------------------------------------------------
  alpha Z        PSCENC =       885.86355081
  Ewald energy   TEWEN  =    164226.44806453
  -Hartree energ DENC   =   -211598.04826730
  -exchange      EXHF   =         0.00000000
  -V(xc)+E(xc)   XCENC  =      1581.46211960
  PAW double counting   =     46407.83963185   -50249.08592964
  entropy T*S    EENTRO =        -0.01438473
  eigenvalues    EBANDS =     -1400.87402721
  atomic energy  EATOM  =     50037.92390023
  Solvation  Ediel_sol  =         0.00000000
  ---------------------------------------------------
  free energy    TOTEN  =      -108.48534185 eV

  energy without entropy =     -108.47095712  energy(sigma->0) =     -108.48174567


--------------------------------------------------------------------------------------------------------




--------------------------------------- Iteration      1(  35)  ---------------------------------------


    POTLOK:  cpu time    0.0708: real time    0.2692
    SETDIJ:  cpu time    0.0055: real time    0.0055
    EDDIAG:  cpu time    2.1999: real time    2.2002
  RMM-DIIS:  cpu time    7.2092: real time    7.2099
    ORTHCH:  cpu time    0.5739: real time    0.5739
       DOS:  cpu time    0.0010: real time    0.0010
    CHARGE:  cpu time    0.5739: real time    0.5739
    MIXING:  cpu time    0.0067: real time    0.0067
    --------------------------------------------
      LOOP:  cpu time   10.6409: real time   10.8402

 eigenvalue-minimisations  :  4488
 total energy-change (2. order) :-0.8933043E-02  (-0.5216620E-04)
 number of electron     395.9998002 magnetization 
 augmentation part      253.5873953 magnetization 

 DIPCOR: dipole corrections for dipol
 direction  3 min pos   147,
 dipolmoment           0.000000      0.000000      1.589433 electrons x Angstroem
 Tr[quadrupol]     -4130.459579

 energy correction for charged system         0.000000 eV
 dipol+quadrupol energy correction           -0.173152 eV
 added-field ion interaction        181.852321 eV  (added to PSCEN)


 Broyden mixing:
  rms(total) = 0.50286E-01    rms(broyden)= 0.50286E-01
  rms(prec ) = 0.12079E+00
  weight for this iteration     100.00

 eigenvalues of (default mixing * dielectric matrix)
  average eigenvalue GAMMA=   1.2841
  5.6224  5.1623  2.6935  2.1999  0.9818  0.9818  1.3091  1.2119  1.2119  1.0839
  0.8410  0.8410  0.8639  0.6027  0.6027  0.3341  0.3341  0.4557  0.4557  0.4128
  0.4326  0.4326  0.4672

 Free energy of the ion-electron system (eV)
  ---------------------------------------------------
  alpha Z        PSCENC =       899.75176566
  Ewald energy   TEWEN  =    164226.44806453
  -Hartree energ DENC   =   -211597.93518971
  -exchange      EXHF   =         0.00000000
  -V(xc)+E(xc)   XCENC  =      1581.46292682
  PAW double counting   =     46407.75387016   -50248.99419705
  entropy T*S    EENTRO =        -0.01518157
  eigenvalues    EBANDS =     -1414.89023396
  atomic energy  EATOM  =     50037.92390023
  Solvation  Ediel_sol  =         0.00000000
  ---------------------------------------------------
  free energy    TOTEN  =      -108.49427490 eV

  energy without entropy =     -108.47909333  energy(sigma->0) =     -108.49047951


--------------------------------------------------------------------------------------------------------




--------------------------------------- Iteration      1(  36)  ---------------------------------------


    POTLOK:  cpu time    0.0672: real time    0.0685
    SETDIJ:  cpu time    0.0051: real time    0.0051
    EDDIAG:  cpu time    2.2075: real time    2.2077
  RMM-DIIS:  cpu time    6.6494: real time    6.6499
    ORTHCH:  cpu time    0.5773: real time    0.5773
       DOS:  cpu time    0.0010: real time    0.0010
    CHARGE:  cpu time    0.5952: real time    0.5952
    MIXING:  cpu time    0.0070: real time    0.0071
    --------------------------------------------
      LOOP:  cpu time   10.1097: real time   10.1119

 eigenvalue-minimisations  :  4079
 total energy-change (2. order) : 0.1887997E-01  (-0.1174052E-03)
 number of electron     395.9998002 magnetization 
 augmentation part      253.5895288 magnetization 

 DIPCOR: dipole corrections for dipol
 direction  3 min pos   148,
 dipolmoment           0.000000      0.000000      1.620420 electrons x Angstroem
 Tr[quadrupol]     -4130.774460

 energy correction for charged system         0.000000 eV
 dipol+quadrupol energy correction           -0.179969 eV
 added-field ion interaction        166.819835 eV  (added to PSCEN)


 Broyden mixing:
  rms(total) = 0.34518E-01    rms(broyden)= 0.34518E-01
  rms(prec ) = 0.82266E-01
  weight for this iteration     100.00

 eigenvalues of (default mixing * dielectric matrix)
  average eigenvalue GAMMA=   1.2900
  6.5015  4.7166  2.5282  2.5282  1.1926  1.1926  1.2261  1.2261  1.1560  1.1560
  0.8411  0.8411  0.8715  0.6137  0.6137  0.3341  0.3341  0.4693  0.4693  0.4446
  0.4446  0.4102  0.4238  0.4238

 Free energy of the ion-electron system (eV)
  ---------------------------------------------------
  alpha Z        PSCENC =       884.71246238
  Ewald energy   TEWEN  =    164226.44806453
  -Hartree energ DENC   =   -211599.40876679
  -exchange      EXHF   =         0.00000000
  -V(xc)+E(xc)   XCENC  =      1581.47283073
  PAW double counting   =     46408.56947482   -50249.81664780
  entropy T*S    EENTRO =        -0.01347259
  eigenvalues    EBANDS =     -1398.36324044
  atomic energy  EATOM  =     50037.92390023
  Solvation  Ediel_sol  =         0.00000000
  ---------------------------------------------------
  free energy    TOTEN  =      -108.47539492 eV

  energy without entropy =     -108.46192233  energy(sigma->0) =     -108.47202678


--------------------------------------------------------------------------------------------------------




--------------------------------------- Iteration      1(  37)  ---------------------------------------


    POTLOK:  cpu time    0.0693: real time    0.0710
    SETDIJ:  cpu time    0.0052: real time    0.0052
    EDDIAG:  cpu time    2.2021: real time    2.2023
  RMM-DIIS:  cpu time    6.8942: real time    6.8978
    ORTHCH:  cpu time    0.5738: real time    0.5738
       DOS:  cpu time    0.0010: real time    0.0010
    CHARGE:  cpu time    0.5831: real time    0.5832
    MIXING:  cpu time    0.0069: real time    0.0069
    --------------------------------------------
      LOOP:  cpu time   10.3357: real time   10.3413

 eigenvalue-minimisations  :  4272
 total energy-change (2. order) : 0.1152255E-01  (-0.2160016E-03)
 number of electron     395.9998002 magnetization 
 augmentation part      253.5893430 magnetization 

 DIPCOR: dipole corrections for dipol
 direction  3 min pos   149,
 dipolmoment           0.000000      0.000000      1.656195 electrons x Angstroem
 Tr[quadrupol]     -4131.026910

 energy correction for charged system         0.000000 eV
 dipol+quadrupol energy correction           -0.188004 eV
 added-field ion interaction        151.812720 eV  (added to PSCEN)


 Broyden mixing:
  rms(total) = 0.17693E-01    rms(broyden)= 0.17693E-01
  rms(prec ) = 0.42493E-01
  weight for this iteration     100.00

 eigenvalues of (default mixing * dielectric matrix)
  average eigenvalue GAMMA=   1.2700
  6.5882  4.7153  2.5238  2.5238  1.2637  1.2637  1.2604  1.2604  1.1124  1.1124
  0.8411  0.8411  0.8673  0.5205  0.5205  0.6050  0.6050  0.3341  0.3341  0.4551
  0.4551  0.4126  0.4318  0.4318  0.4695

 Free energy of the ion-electron system (eV)
  ---------------------------------------------------
  alpha Z        PSCENC =       869.69731272
  Ewald energy   TEWEN  =    164226.44806453
  -Hartree energ DENC   =   -211599.17376602
  -exchange      EXHF   =         0.00000000
  -V(xc)+E(xc)   XCENC  =      1581.48336237
  PAW double counting   =     46407.40304479   -50248.61086263
  entropy T*S    EENTRO =        -0.01173692
  eigenvalues    EBANDS =     -1383.62319144
  atomic energy  EATOM  =     50037.92390023
  Solvation  Ediel_sol  =         0.00000000
  ---------------------------------------------------
  free energy    TOTEN  =      -108.46387238 eV

  energy without entropy =     -108.45213545  energy(sigma->0) =     -108.46093815


--------------------------------------------------------------------------------------------------------




--------------------------------------- Iteration      1(  38)  ---------------------------------------


    POTLOK:  cpu time    0.0684: real time    0.0700
    SETDIJ:  cpu time    0.0052: real time    0.0052
    EDDIAG:  cpu time    2.2076: real time    2.2078
  RMM-DIIS:  cpu time    7.1829: real time    7.1835
    ORTHCH:  cpu time    0.5806: real time    0.5807
       DOS:  cpu time    0.0009: real time    0.0009
    CHARGE:  cpu time    0.5933: real time    0.5933
    MIXING:  cpu time    0.0074: real time    0.0074
    --------------------------------------------
      LOOP:  cpu time   10.6464: real time   10.6488

 eigenvalue-minimisations  :  4462
 total energy-change (2. order) : 0.3948415E-02  (-0.3048663E-03)
 number of electron     395.9998001 magnetization 
 augmentation part      253.5937597 magnetization 

 DIPCOR: dipole corrections for dipol
 direction  3 min pos   162,
 dipolmoment           0.000000      0.000000      1.713801 electrons x Angstroem
 Tr[quadrupol]     -4134.845245

 energy correction for charged system         0.000000 eV
 dipol+quadrupol energy correction           -0.201310 eV
 added-field ion interaction        -14.809843 eV  (added to PSCEN)


 Broyden mixing:
  rms(total) = 0.14992E-02    rms(broyden)= 0.14905E-02
  rms(prec ) = 0.20047E-02
  weight for this iteration     100.00

 eigenvalues of (default mixing * dielectric matrix)
  average eigenvalue GAMMA=   1.3574
  7.2539  5.1941  2.4327  2.4327  1.3339  1.3339  1.6662  1.6662  1.1560  1.1560
  1.0799  1.0799  0.8410  0.8410  0.8536  0.3341  0.3341  0.5840  0.5840  0.4542
  0.4542  0.4123  0.4310  0.4310  0.4762  0.4762

 Free energy of the ion-electron system (eV)
  ---------------------------------------------------
  alpha Z        PSCENC =       703.06144363
  Ewald energy   TEWEN  =    164226.44806453
  -Hartree energ DENC   =   -211598.47185141
  -exchange      EXHF   =         0.00000000
  -V(xc)+E(xc)   XCENC  =      1581.48024382
  PAW double counting   =     46406.79790867   -50247.99117825
  entropy T*S    EENTRO =        -0.01001534
  eigenvalues    EBANDS =     -1217.69843985
  atomic energy  EATOM  =     50037.92390023
  Solvation  Ediel_sol  =         0.00000000
  ---------------------------------------------------
  free energy    TOTEN  =      -108.45992396 eV

  energy without entropy =     -108.44990862  energy(sigma->0) =     -108.45742013


--------------------------------------------------------------------------------------------------------




--------------------------------------- Iteration      1(  39)  ---------------------------------------


    POTLOK:  cpu time    0.0677: real time    0.0690
    SETDIJ:  cpu time    0.0051: real time    0.0051
    EDDIAG:  cpu time    2.2047: real time    2.2049
  RMM-DIIS:  cpu time    6.4520: real time    6.4525
    ORTHCH:  cpu time    0.5749: real time    0.5750
       DOS:  cpu time    0.0010: real time    0.0010
    CHARGE:  cpu time    0.6006: real time    0.6006
    MIXING:  cpu time    0.0080: real time    0.0080
    --------------------------------------------
      LOOP:  cpu time    9.9140: real time    9.9162

 eigenvalue-minimisations  :  3979
 total energy-change (2. order) :-0.6474693E-03  (-0.3406442E-04)
 number of electron     395.9998001 magnetization 
 augmentation part      253.5992718 magnetization 

 DIPCOR: dipole corrections for dipol
 direction  3 min pos   168,
 dipolmoment           0.000000      0.000000      1.723659 electrons x Angstroem
 Tr[quadrupol]     -4136.661551

 energy correction for charged system         0.000000 eV
 dipol+quadrupol energy correction           -0.203632 eV
 added-field ion interaction        -89.894758 eV  (added to PSCEN)


 Broyden mixing:
  rms(total) = 0.25114E-02    rms(broyden)= 0.25110E-02
  rms(prec ) = 0.44415E-02
  weight for this iteration     100.00

 eigenvalues of (default mixing * dielectric matrix)
  average eigenvalue GAMMA=   1.4284
  7.7249  6.1975  2.8742  2.8742  1.3333  1.3333  1.8509  1.1945  1.1945  1.2390
  1.2390  0.8409  0.8409  0.9595  0.9595  0.9394  0.3341  0.3341  0.5862  0.5862
  0.4541  0.4541  0.4123  0.4309  0.4309  0.4734  0.4734

 Free energy of the ion-electron system (eV)
  ---------------------------------------------------
  alpha Z        PSCENC =       627.97420588
  Ewald energy   TEWEN  =    164226.44806453
  -Hartree energ DENC   =   -211597.80697588
  -exchange      EXHF   =         0.00000000
  -V(xc)+E(xc)   XCENC  =      1581.46832714
  PAW double counting   =     46405.97921324   -50247.16728458
  entropy T*S    EENTRO =        -0.00976801
  eigenvalues    EBANDS =     -1143.27025397
  atomic energy  EATOM  =     50037.92390023
  Solvation  Ediel_sol  =         0.00000000
  ---------------------------------------------------
  free energy    TOTEN  =      -108.46057143 eV

  energy without entropy =     -108.45080342  energy(sigma->0) =     -108.45812943


--------------------------------------------------------------------------------------------------------




--------------------------------------- Iteration      1(  40)  ---------------------------------------


    POTLOK:  cpu time    0.0705: real time    0.0711
    SETDIJ:  cpu time    0.0052: real time    0.0052
    EDDIAG:  cpu time    2.2038: real time    2.2050
  RMM-DIIS:  cpu time    4.7361: real time    4.7380
    ORTHCH:  cpu time    0.5783: real time    0.5784
       DOS:  cpu time    0.0009: real time    0.0009
    CHARGE:  cpu time    0.5795: real time    0.5796
    MIXING:  cpu time    0.0082: real time    0.0082
    --------------------------------------------
      LOOP:  cpu time    8.1825: real time    8.1864

 eigenvalue-minimisations  :  2829
 total energy-change (2. order) :-0.4416121E-03  (-0.7939685E-05)
 number of electron     395.9998001 magnetization 
 augmentation part      253.5969126 magnetization 

 DIPCOR: dipole corrections for dipol
 direction  3 min pos   171,
 dipolmoment           0.000000      0.000000      1.717973 electrons x Angstroem
 Tr[quadrupol]     -4137.595341

 energy correction for charged system         0.000000 eV
 dipol+quadrupol energy correction           -0.202291 eV
 added-field ion interaction       -127.737856 eV  (added to PSCEN)


 Broyden mixing:
  rms(total) = 0.11835E-02    rms(broyden)= 0.11834E-02
  rms(prec ) = 0.25372E-02
  weight for this iteration     100.00

 eigenvalues of (default mixing * dielectric matrix)
  average eigenvalue GAMMA=   1.4343
  7.8859  6.6856  2.9351  2.9351  1.3324  1.3324  1.9648  1.1979  1.1979  1.1956
  1.1956  0.8409  0.8409  1.0776  1.0776  0.9147  0.3341  0.3341  0.5798  0.5798
  0.5913  0.4540  0.4540  0.4123  0.4309  0.4309  0.4903  0.4580

 Free energy of the ion-electron system (eV)
  ---------------------------------------------------
  alpha Z        PSCENC =       590.13244937
  Ewald energy   TEWEN  =    164226.44806453
  -Hartree energ DENC   =   -211598.14173317
  -exchange      EXHF   =         0.00000000
  -V(xc)+E(xc)   XCENC  =      1581.47193744
  PAW double counting   =     46405.83424995   -50247.03456416
  entropy T*S    EENTRO =        -0.01004665
  eigenvalues    EBANDS =     -1105.08527058
  atomic energy  EATOM  =     50037.92390023
  Solvation  Ediel_sol  =         0.00000000
  ---------------------------------------------------
  free energy    TOTEN  =      -108.46101304 eV

  energy without entropy =     -108.45096639  energy(sigma->0) =     -108.45850138


--------------------------------------------------------------------------------------------------------




--------------------------------------- Iteration      1(  41)  ---------------------------------------


    POTLOK:  cpu time    0.0716: real time    0.0719
    SETDIJ:  cpu time    0.0052: real time    0.0052
    EDDIAG:  cpu time    2.2101: real time    2.2103
  RMM-DIIS:  cpu time    4.2269: real time    4.2272
    ORTHCH:  cpu time    0.5683: real time    0.5684
       DOS:  cpu time    0.0010: real time    0.0010
    CHARGE:  cpu time    0.5913: real time    0.5913
    MIXING:  cpu time    0.0083: real time    0.0083
    --------------------------------------------
      LOOP:  cpu time    7.6826: real time    7.6835

 eigenvalue-minimisations  :  2462
 total energy-change (2. order) :-0.1540877E-03  (-0.1948096E-05)
 number of electron     395.9998001 magnetization 
 augmentation part      253.5957793 magnetization 

 DIPCOR: dipole corrections for dipol
 direction  3 min pos   173,
 dipolmoment           0.000000      0.000000      1.717929 electrons x Angstroem
 Tr[quadrupol]     -4138.204201

 energy correction for charged system         0.000000 eV
 dipol+quadrupol energy correction           -0.202281 eV
 added-field ion interaction       -152.840615 eV  (added to PSCEN)


 Broyden mixing:
  rms(total) = 0.89673E-03    rms(broyden)= 0.89672E-03
  rms(prec ) = 0.20676E-02
  weight for this iteration     100.00

 eigenvalues of (default mixing * dielectric matrix)
  average eigenvalue GAMMA=   1.4421
  8.2421  6.8398  2.9447  2.9447  1.3317  1.3317  2.1200  1.3416  1.3416  1.4138
  1.1542  1.1542  0.8410  0.8410  0.9317  0.9317  0.7611  0.3341  0.3341  0.5863
  0.5863  0.4539  0.4539  0.4813  0.4813  0.4309  0.4309  0.4123  0.3685

 Free energy of the ion-electron system (eV)
  ---------------------------------------------------
  alpha Z        PSCENC =       565.02970032
  Ewald energy   TEWEN  =    164226.44806453
  -Hartree energ DENC   =   -211598.27605084
  -exchange      EXHF   =         0.00000000
  -V(xc)+E(xc)   XCENC  =      1581.47368705
  PAW double counting   =     46406.12266956   -50247.33406940
  entropy T*S    EENTRO =        -0.01011848
  eigenvalues    EBANDS =     -1079.83895010
  atomic energy  EATOM  =     50037.92390023
  Solvation  Ediel_sol  =         0.00000000
  ---------------------------------------------------
  free energy    TOTEN  =      -108.46116713 eV

  energy without entropy =     -108.45104865  energy(sigma->0) =     -108.45863751


--------------------------------------------------------------------------------------------------------




--------------------------------------- Iteration      1(  42)  ---------------------------------------


    POTLOK:  cpu time    0.0702: real time    0.0714
    SETDIJ:  cpu time    0.0051: real time    0.0051
    EDDIAG:  cpu time    2.1961: real time    2.1963
  RMM-DIIS:  cpu time    3.7566: real time    3.7569
    ORTHCH:  cpu time    0.5761: real time    0.5762
       DOS:  cpu time    0.0009: real time    0.0009
    CHARGE:  cpu time    0.5918: real time    0.5918
    MIXING:  cpu time    0.0083: real time    0.0083
    --------------------------------------------
      LOOP:  cpu time    7.2052: real time    7.2070

 eigenvalue-minimisations  :  2313
 total energy-change (2. order) :-0.3686013E-04  (-0.3052070E-05)
 number of electron     395.9998001 magnetization 
 augmentation part      253.5962064 magnetization 

 DIPCOR: dipole corrections for dipol
 direction  3 min pos   163,
 dipolmoment           0.000000      0.000000      1.712698 electrons x Angstroem
 Tr[quadrupol]     -4135.226307

 energy correction for charged system         0.000000 eV
 dipol+quadrupol energy correction           -0.201051 eV
 added-field ion interaction        -27.391010 eV  (added to PSCEN)


 Broyden mixing:
  rms(total) = 0.16889E-02    rms(broyden)= 0.16889E-02
  rms(prec ) = 0.41352E-02
  weight for this iteration     100.00

 eigenvalues of (default mixing * dielectric matrix)
  average eigenvalue GAMMA=   1.4739
  8.7635  6.9529  3.0406  3.0406  1.3320  1.3320  1.9986  1.9986  1.4394  1.4394
  1.0961  1.0961  0.8410  0.8410  0.9685  0.9685  0.8841  0.8841  0.3341  0.3341
  0.5857  0.5857  0.4540  0.4540  0.4123  0.4309  0.4309  0.4772  0.4772  0.3251

 Free energy of the ion-electron system (eV)
  ---------------------------------------------------
  alpha Z        PSCENC =       690.48053554
  Ewald energy   TEWEN  =    164226.44806453
  -Hartree energ DENC   =   -211598.18554354
  -exchange      EXHF   =         0.00000000
  -V(xc)+E(xc)   XCENC  =      1581.47267370
  PAW double counting   =     46406.23529757   -50247.45062618
  entropy T*S    EENTRO =        -0.01022912
  eigenvalues    EBANDS =     -1205.37527670
  atomic energy  EATOM  =     50037.92390023
  Solvation  Ediel_sol  =         0.00000000
  ---------------------------------------------------
  free energy    TOTEN  =      -108.46120399 eV

  energy without entropy =     -108.45097487  energy(sigma->0) =     -108.45864671


--------------------------------------------------------------------------------------------------------




--------------------------------------- Iteration      1(  43)  ---------------------------------------


    POTLOK:  cpu time    0.0720: real time    0.0723
    SETDIJ:  cpu time    0.0051: real time    0.0051
    EDDIAG:  cpu time    2.2087: real time    2.2090
  RMM-DIIS:  cpu time    3.8055: real time    3.8058
    ORTHCH:  cpu time    0.5784: real time    0.5785
       DOS:  cpu time    0.0009: real time    0.0009
    CHARGE:  cpu time    0.5939: real time    0.5940
    MIXING:  cpu time    0.0091: real time    0.0091
    --------------------------------------------
      LOOP:  cpu time    7.2736: real time    7.2746

 eigenvalue-minimisations  :  2357
 total energy-change (2. order) : 0.1638660E-04  (-0.4541639E-05)
 number of electron     395.9998001 magnetization 
 augmentation part      253.5958433 magnetization 

 DIPCOR: dipole corrections for dipol
 direction  3 min pos   157,
 dipolmoment           0.000000      0.000000      1.715283 electrons x Angstroem
 Tr[quadrupol]     -4133.434234

 energy correction for charged system         0.000000 eV
 dipol+quadrupol energy correction           -0.201658 eV
 added-field ion interaction         48.012564 eV  (added to PSCEN)


 Broyden mixing:
  rms(total) = 0.55166E-03    rms(broyden)= 0.55160E-03
  rms(prec ) = 0.11081E-02
  weight for this iteration     100.00

 eigenvalues of (default mixing * dielectric matrix)
  average eigenvalue GAMMA=   1.4914
  8.8279  7.3880  3.1984  3.1984  2.3023  2.1850  1.3320  1.3320  1.2290  1.2290
  1.1435  1.1435  1.0927  1.0927  0.8410  0.8410  0.9438  0.8956  0.7383  0.3341
  0.3341  0.5861  0.5861  0.4540  0.4540  0.4123  0.4309  0.4309  0.4801  0.4690
  0.3076

 Free energy of the ion-electron system (eV)
  ---------------------------------------------------
  alpha Z        PSCENC =       765.88350215
  Ewald energy   TEWEN  =    164226.44806453
  -Hartree energ DENC   =   -211598.03186295
  -exchange      EXHF   =         0.00000000
  -V(xc)+E(xc)   XCENC  =      1581.47271572
  PAW double counting   =     46406.32665142   -50247.54819596
  entropy T*S    EENTRO =        -0.01013360
  eigenvalues    EBANDS =     -1280.92582914
  atomic energy  EATOM  =     50037.92390023
  Solvation  Ediel_sol  =         0.00000000
  ---------------------------------------------------
  free energy    TOTEN  =      -108.46118760 eV

  energy without entropy =     -108.45105400  energy(sigma->0) =     -108.45865420


--------------------------------------------------------------------------------------------------------




--------------------------------------- Iteration      1(  44)  ---------------------------------------


    POTLOK:  cpu time    0.0738: real time    0.1972
    SETDIJ:  cpu time    0.0053: real time    0.0053
    EDDIAG:  cpu time    2.1996: real time    2.2006
  RMM-DIIS:  cpu time    3.9351: real time    3.9371
    ORTHCH:  cpu time    0.5777: real time    0.5777
       DOS:  cpu time    0.0009: real time    0.0009
    CHARGE:  cpu time    0.5980: real time    0.5980
    MIXING:  cpu time    0.0087: real time    0.0087
    --------------------------------------------
      LOOP:  cpu time    7.3991: real time    7.5255

 eigenvalue-minimisations  :  2300
 total energy-change (2. order) :-0.3998224E-04  (-0.7129542E-06)
 number of electron     395.9998001 magnetization 
 augmentation part      253.5975947 magnetization 

 DIPCOR: dipole corrections for dipol
 direction  3 min pos   159,
 dipolmoment           0.000000      0.000000      1.716551 electrons x Angstroem
 Tr[quadrupol]     -4134.041897

 energy correction for charged system         0.000000 eV
 dipol+quadrupol energy correction           -0.201956 eV
 added-field ion interaction         22.875991 eV  (added to PSCEN)


 Broyden mixing:
  rms(total) = 0.48307E-03    rms(broyden)= 0.48307E-03
  rms(prec ) = 0.11348E-02
  weight for this iteration     100.00

 eigenvalues of (default mixing * dielectric matrix)
  average eigenvalue GAMMA=   1.4788
  8.8184  7.5128  3.2798  3.2798  2.5350  1.3320  1.3320  1.9142  1.2966  1.2966
  1.3238  1.1118  1.1118  0.8410  0.8410  1.0031  1.0031  0.8359  0.8359  0.3341
  0.3341  0.5849  0.5849  0.5474  0.4540  0.4540  0.4123  0.4309  0.4309  0.4842
  0.4595  0.3048

 Free energy of the ion-electron system (eV)
  ---------------------------------------------------
  alpha Z        PSCENC =       740.74663112
  Ewald energy   TEWEN  =    164226.44806453
  -Hartree energ DENC   =   -211598.04553357
  -exchange      EXHF   =         0.00000000
  -V(xc)+E(xc)   XCENC  =      1581.47053933
  PAW double counting   =     46406.28461475   -50247.50077388
  entropy T*S    EENTRO =        -0.01009573
  eigenvalues    EBANDS =     -1255.77857437
  atomic energy  EATOM  =     50037.92390023
  Solvation  Ediel_sol  =         0.00000000
  ---------------------------------------------------
  free energy    TOTEN  =      -108.46122759 eV

  energy without entropy =     -108.45113185  energy(sigma->0) =     -108.45870365


--------------------------------------------------------------------------------------------------------




--------------------------------------- Iteration      1(  45)  ---------------------------------------


    POTLOK:  cpu time    0.0708: real time    0.0711
    SETDIJ:  cpu time    0.0053: real time    0.0053
    EDDIAG:  cpu time    2.2006: real time    2.2009
  RMM-DIIS:  cpu time    3.9160: real time    3.9163
    ORTHCH:  cpu time    0.5783: real time    0.5784
       DOS:  cpu time    0.0009: real time    0.0009
    CHARGE:  cpu time    0.5921: real time    0.5922
    MIXING:  cpu time    0.0093: real time    0.0093
    --------------------------------------------
      LOOP:  cpu time    7.3733: real time    7.3744

 eigenvalue-minimisations  :  2280
 total energy-change (2. order) :-0.1621204E-04  (-0.2182563E-06)
 number of electron     395.9998001 magnetization 
 augmentation part      253.5971842 magnetization 

 DIPCOR: dipole corrections for dipol
 direction  3 min pos   160,
 dipolmoment           0.000000      0.000000      1.716683 electrons x Angstroem
 Tr[quadrupol]     -4134.341996

 energy correction for charged system         0.000000 eV
 dipol+quadrupol energy correction           -0.201987 eV
 added-field ion interaction         10.318633 eV  (added to PSCEN)


 Broyden mixing:
  rms(total) = 0.58130E-03    rms(broyden)= 0.58130E-03
  rms(prec ) = 0.13354E-02
  weight for this iteration     100.00

 eigenvalues of (default mixing * dielectric matrix)
  average eigenvalue GAMMA=   1.4801
  8.7773  7.6722  3.3582  3.3582  2.5883  1.3320  1.3320  1.7104  1.7104  1.4257
  1.4257  1.1310  1.1310  0.8410  0.8410  1.0184  1.0184  0.8794  0.8794  0.7628
  0.3341  0.3341  0.5860  0.5860  0.4540  0.4540  0.4123  0.4309  0.4309  0.4788
  0.4730  0.3755  0.3027

 Free energy of the ion-electron system (eV)
  ---------------------------------------------------
  alpha Z        PSCENC =       728.18924212
  Ewald energy   TEWEN  =    164226.44806453
  -Hartree energ DENC   =   -211598.07770555
  -exchange      EXHF   =         0.00000000
  -V(xc)+E(xc)   XCENC  =      1581.47065732
  PAW double counting   =     46406.32208602   -50247.53957057
  entropy T*S    EENTRO =        -0.01010286
  eigenvalues    EBANDS =     -1243.18781504
  atomic energy  EATOM  =     50037.92390023
  Solvation  Ediel_sol  =         0.00000000
  ---------------------------------------------------
  free energy    TOTEN  =      -108.46124380 eV

  energy without entropy =     -108.45114094  energy(sigma->0) =     -108.45871808


--------------------------------------------------------------------------------------------------------




--------------------------------------- Iteration      1(  46)  ---------------------------------------


    POTLOK:  cpu time    0.0689: real time    0.0706
    SETDIJ:  cpu time    0.0052: real time    0.0052
    EDDIAG:  cpu time    2.2002: real time    2.2004
  RMM-DIIS:  cpu time    3.9165: real time    3.9169
    ORTHCH:  cpu time    0.5771: real time    0.5771
       DOS:  cpu time    0.0009: real time    0.0009
    CHARGE:  cpu time    0.5883: real time    0.5883
    MIXING:  cpu time    0.0101: real time    0.0101
    --------------------------------------------
      LOOP:  cpu time    7.3671: real time    7.3695

 eigenvalue-minimisations  :  2272
 total energy-change (2. order) :-0.1008168E-04  (-0.2571808E-06)
 number of electron     395.9998001 magnetization 
 augmentation part      253.5977481 magnetization 

 DIPCOR: dipole corrections for dipol
 direction  3 min pos   161,
 dipolmoment           0.000000      0.000000      1.717824 electrons x Angstroem
 Tr[quadrupol]     -4134.639726

 energy correction for charged system         0.000000 eV
 dipol+quadrupol energy correction           -0.202256 eV
 added-field ion interaction         -2.236629 eV  (added to PSCEN)


 Broyden mixing:
  rms(total) = 0.22868E-03    rms(broyden)= 0.22866E-03
  rms(prec ) = 0.37820E-03
  weight for this iteration     100.00

 eigenvalues of (default mixing * dielectric matrix)
  average eigenvalue GAMMA=   1.5114
  8.3666  8.3666  3.6851  3.6851  2.4010  2.1943  2.1943  1.3320  1.3320  1.3314
  1.3314  1.1805  1.1805  1.0909  1.0909  0.8410  0.8410  0.8999  0.8999  0.8366
  0.7412  0.3341  0.3341  0.5866  0.5866  0.4540  0.4540  0.4123  0.4309  0.4309
  0.4812  0.4675  0.2814  0.3133

 Free energy of the ion-electron system (eV)
  ---------------------------------------------------
  alpha Z        PSCENC =       715.63371185
  Ewald energy   TEWEN  =    164226.44806453
  -Hartree energ DENC   =   -211598.06712017
  -exchange      EXHF   =         0.00000000
  -V(xc)+E(xc)   XCENC  =      1581.47046482
  PAW double counting   =     46406.36064515   -50247.57721336
  entropy T*S    EENTRO =        -0.01007364
  eigenvalues    EBANDS =     -1230.64363328
  atomic energy  EATOM  =     50037.92390023
  Solvation  Ediel_sol  =         0.00000000
  ---------------------------------------------------
  free energy    TOTEN  =      -108.46125388 eV

  energy without entropy =     -108.45118024  energy(sigma->0) =     -108.45873547


--------------------------------------------------------------------------------------------------------




--------------------------------------- Iteration      1(  47)  ---------------------------------------


    POTLOK:  cpu time    0.0711: real time    0.0714
    SETDIJ:  cpu time    0.0052: real time    0.0052
    EDDIAG:  cpu time    2.2048: real time    2.2050
  RMM-DIIS:  cpu time    3.8948: real time    3.8951
    ORTHCH:  cpu time    0.5785: real time    0.5786
       DOS:  cpu time    0.0009: real time    0.0009
    CHARGE:  cpu time    0.5829: real time    0.5830
    MIXING:  cpu time    0.0103: real time    0.0103
    --------------------------------------------
      LOOP:  cpu time    7.3484: real time    7.3494

 eigenvalue-minimisations  :  2296
 total energy-change (2. order) :-0.3171612E-04  (-0.6751734E-06)
 number of electron     395.9998001 magnetization 
 augmentation part      253.5975045 magnetization 

 DIPCOR: dipole corrections for dipol
 direction  3 min pos   163,
 dipolmoment           0.000000      0.000000      1.720007 electrons x Angstroem
 Tr[quadrupol]     -4135.234210

 energy correction for charged system         0.000000 eV
 dipol+quadrupol energy correction           -0.202770 eV
 added-field ion interaction        -27.315861 eV  (added to PSCEN)


 Broyden mixing:
  rms(total) = 0.47941E-03    rms(broyden)= 0.47938E-03
  rms(prec ) = 0.11864E-02
  weight for this iteration     100.00

 eigenvalues of (default mixing * dielectric matrix)
  average eigenvalue GAMMA=   1.4927
  8.3845  8.3845  3.7870  3.7870  2.4965  2.4965  1.3320  1.3320  1.9177  1.3513
  1.3513  1.1504  1.1504  1.1122  1.1122  0.8410  0.8410  0.9007  0.9007  0.8129
  0.8129  0.3341  0.3341  0.5862  0.5862  0.4540  0.4540  0.4123  0.4309  0.4309
  0.4828  0.4828  0.4512  0.2443  0.3067

 Free energy of the ion-electron system (eV)
  ---------------------------------------------------
  alpha Z        PSCENC =       690.55396575
  Ewald energy   TEWEN  =    164226.44806453
  -Hartree energ DENC   =   -211597.99204433
  -exchange      EXHF   =         0.00000000
  -V(xc)+E(xc)   XCENC  =      1581.47020480
  PAW double counting   =     46406.35082280   -50247.56705563
  entropy T*S    EENTRO =        -0.01002714
  eigenvalues    EBANDS =     -1205.63911660
  atomic energy  EATOM  =     50037.92390023
  Solvation  Ediel_sol  =         0.00000000
  ---------------------------------------------------
  free energy    TOTEN  =      -108.46128560 eV

  energy without entropy =     -108.45125845  energy(sigma->0) =     -108.45877881


--------------------------------------------------------------------------------------------------------




--------------------------------------- Iteration      1(  48)  ---------------------------------------


    POTLOK:  cpu time    0.0692: real time    0.0710
    SETDIJ:  cpu time    0.0052: real time    0.0052
    EDDIAG:  cpu time    2.2015: real time    2.2027
  RMM-DIIS:  cpu time    3.9181: real time    3.9199
    ORTHCH:  cpu time    0.5787: real time    0.5788
       DOS:  cpu time    0.0009: real time    0.0009
    CHARGE:  cpu time    0.5891: real time    0.5891
    MIXING:  cpu time    0.0101: real time    0.0101
    --------------------------------------------
      LOOP:  cpu time    7.3728: real time    7.3776

 eigenvalue-minimisations  :  2275
 total energy-change (2. order) :-0.1684953E-04  (-0.4977778E-06)
 number of electron     395.9998001 magnetization 
 augmentation part      253.5976303 magnetization 

 DIPCOR: dipole corrections for dipol
 direction  3 min pos   165,
 dipolmoment           0.000000      0.000000      1.719440 electrons x Angstroem
 Tr[quadrupol]     -4135.832011

 energy correction for charged system         0.000000 eV
 dipol+quadrupol energy correction           -0.202637 eV
 added-field ion interaction        -52.408101 eV  (added to PSCEN)


 Broyden mixing:
  rms(total) = 0.10684E-03    rms(broyden)= 0.10680E-03
  rms(prec ) = 0.12569E-03
  weight for this iteration     100.00

 eigenvalues of (default mixing * dielectric matrix)
  average eigenvalue GAMMA=   1.4818
  8.4018  8.4018  3.7373  3.7373  2.6482  2.6482  1.3320  1.3320  1.4185  1.4185
  1.3804  1.3056  1.3056  1.1016  1.1016  0.8410  0.8410  0.9490  0.9490  0.8648
  0.8648  0.7208  0.3341  0.3341  0.5856  0.5856  0.4540  0.4540  0.4123  0.4309
  0.4309  0.5175  0.4830  0.4615  0.2520  0.3076

 Free energy of the ion-electron system (eV)
  ---------------------------------------------------
  alpha Z        PSCENC =       665.46185928
  Ewald energy   TEWEN  =    164226.44806453
  -Hartree energ DENC   =   -211597.99448878
  -exchange      EXHF   =         0.00000000
  -V(xc)+E(xc)   XCENC  =      1581.47032032
  PAW double counting   =     46406.30703714   -50247.52296947
  entropy T*S    EENTRO =        -0.01006906
  eigenvalues    EBANDS =     -1180.54495663
  atomic energy  EATOM  =     50037.92390023
  Solvation  Ediel_sol  =         0.00000000
  ---------------------------------------------------
  free energy    TOTEN  =      -108.46130244 eV

  energy without entropy =     -108.45123338  energy(sigma->0) =     -108.45878518


--------------------------------------------------------------------------------------------------------




--------------------------------------- Iteration      1(  49)  ---------------------------------------


    POTLOK:  cpu time    0.0699: real time    0.0706
    SETDIJ:  cpu time    0.0052: real time    0.0052
    EDDIAG:  cpu time    2.2134: real time    2.2135
  RMM-DIIS:  cpu time    3.6426: real time    3.6429
    ORTHCH:  cpu time    0.5752: real time    0.5753
       DOS:  cpu time    0.0009: real time    0.0009
    --------------------------------------------
      LOOP:  cpu time    6.5072: real time    6.5083

 eigenvalue-minimisations  :  1824
 total energy-change (2. order) :-0.8576593E-05  (-0.1467997E-06)
 number of electron     395.9998001 magnetization 
 augmentation part      253.5976303 magnetization 

 DIPCOR: dipole corrections for dipol
 direction  3 min pos   166,
 dipolmoment           0.000000      0.000000      1.719505 electrons x Angstroem
 Tr[quadrupol]     -4136.130017

 energy correction for charged system         0.000000 eV
 dipol+quadrupol energy correction           -0.202652 eV
 added-field ion interaction        -64.949713 eV  (added to PSCEN)


 Free energy of the ion-electron system (eV)
  ---------------------------------------------------
  alpha Z        PSCENC =       652.92023173
  Ewald energy   TEWEN  =    164226.44806453
  -Hartree energ DENC   =   -211598.00144084
  -exchange      EXHF   =         0.00000000
  -V(xc)+E(xc)   XCENC  =      1581.47068103
  PAW double counting   =     46406.31714822   -50247.53291590
  entropy T*S    EENTRO =        -0.01008754
  eigenvalues    EBANDS =     -1167.99689249
  atomic energy  EATOM  =     50037.92390023
  Solvation  Ediel_sol  =         0.00000000
  ---------------------------------------------------
  free energy    TOTEN  =      -108.46131102 eV

  energy without entropy =     -108.45122348  energy(sigma->0) =     -108.45878914


--------------------------------------------------------------------------------------------------------




 average (electrostatic) potential at core
  the test charge radii are     0.9430
  (the norm of the test charge is              1.0000)
       1 -71.2611       2 -71.2614       3 -71.2619       4 -71.2604       5 -71.2597
       6 -71.2607       7 -71.2609       8 -71.2613       9 -71.2618      10 -71.6327
      11 -71.6416      12 -71.6305      13 -71.6525      14 -71.6696      15 -71.6585
      16 -71.6524      17 -71.6694      18 -71.6581      19 -71.6349      20 -71.6284
      21 -71.6289      22 -71.6201      23 -71.6149      24 -71.6208      25 -71.6345
      26 -71.6287      27 -71.6301      28 -71.2833      29 -71.2888      30 -71.2834
      31 -71.2570      32 -71.2297      33 -71.2317      34 -71.2589      35 -71.2266
      36 -71.2365
 
 
 
 E-fermi :  -0.2487     XC(G=0):  -5.0061     alpha+bet : -4.4887


 k-point     1 :       0.1250    0.1250    0.0000
  band No.  band energies     occupation 
      1      -8.6582      2.00000
      2      -7.1118      2.00000
      3      -6.8338      2.00000
      4      -6.8276      2.00000
      5      -5.8497      2.00000
      6      -5.8435      2.00000
      7      -5.5971      2.00000
      8      -5.5903      2.00000
      9      -5.3964      2.00000
     10      -5.2171      2.00000
     11      -5.0843      2.00000
     12      -5.0777      2.00000
     13      -4.8652      2.00000
     14      -4.8631      2.00000
     15      -4.7651      2.00000
     16      -4.6832      2.00000
     17      -4.4654      2.00000
     18      -4.4393      2.00000
     19      -4.4292      2.00000
     20      -4.4088      2.00000
     21      -4.4013      2.00000
     22      -4.3559      2.00000
     23      -4.2855      2.00000
     24      -4.2261      2.00000
     25      -4.2247      2.00000
     26      -4.1634      2.00000
     27      -4.1501      2.00000
     28      -4.1460      2.00000
     29      -4.1119      2.00000
     30      -4.1067      2.00000
     31      -4.1007      2.00000
     32      -4.0905      2.00000
     33      -4.0832      2.00000
     34      -4.0150      2.00000
     35      -4.0095      2.00000
     36      -4.0066      2.00000
     37      -4.0010      2.00000
     38      -3.9913      2.00000
     39      -3.9106      2.00000
     40      -3.9067      2.00000
     41      -3.8595      2.00000
     42      -3.8428      2.00000
     43      -3.8183      2.00000
     44      -3.8117      2.00000
     45      -3.7252      2.00000
     46      -3.6142      2.00000
     47      -3.6108      2.00000
     48      -3.6007      2.00000
     49      -3.5949      2.00000
     50      -3.5620      2.00000
     51      -3.5348      2.00000
     52      -3.5131      2.00000
     53      -3.5066      2.00000
     54      -3.5044      2.00000
     55      -3.4631      2.00000
     56      -3.3967      2.00000
     57      -3.3954      2.00000
     58      -3.3755      2.00000
     59      -3.3334      2.00000
     60      -3.3306      2.00000
     61      -3.3276      2.00000
     62      -3.3060      2.00000
     63      -3.2835      2.00000
     64      -3.2781      2.00000
     65      -3.2748      2.00000
     66      -3.2579      2.00000
     67      -3.2510      2.00000
     68      -3.2461      2.00000
     69      -3.1953      2.00000
     70      -3.1921      2.00000
     71      -3.1875      2.00000
     72      -3.0898      2.00000
     73      -3.0806      2.00000
     74      -3.0704      2.00000
     75      -3.0621      2.00000
     76      -3.0353      2.00000
     77      -3.0218      2.00000
     78      -3.0166      2.00000
     79      -2.9817      2.00000
     80      -2.9766      2.00000
     81      -2.9675      2.00000
     82      -2.9593      2.00000
     83      -2.9548      2.00000
     84      -2.9496      2.00000
     85      -2.9319      2.00000
     86      -2.9285      2.00000
     87      -2.9232      2.00000
     88      -2.9176      2.00000
     89      -2.9143      2.00000
     90      -2.9049      2.00000
     91      -2.8965      2.00000
     92      -2.8872      2.00000
     93      -2.8773      2.00000
     94      -2.8644      2.00000
     95      -2.8487      2.00000
     96      -2.8450      2.00000
     97      -2.7990      2.00000
     98      -2.7951      2.00000
     99      -2.7509      2.00000
    100      -2.6973      2.00000
    101      -2.6962      2.00000
    102      -2.6605      2.00000
    103      -2.6567      2.00000
    104      -2.5544      2.00000
    105      -2.5424      2.00000
    106      -2.5361      2.00000
    107      -2.5331      2.00000
    108      -2.5040      2.00000
    109      -2.4973      2.00000
    110      -2.4861      2.00000
    111      -2.4804      2.00000
    112      -2.4659      2.00000
    113      -2.4381      2.00000
    114      -2.4342      2.00000
    115      -2.4328      2.00000
    116      -2.4298      2.00000
    117      -2.4114      2.00000
    118      -2.4033      2.00000
    119      -2.3984      2.00000
    120      -2.3954      2.00000
    121      -2.3810      2.00000
    122      -2.3769      2.00000
    123      -2.3545      2.00000
    124      -2.3351      2.00000
    125      -2.3286      2.00000
    126      -2.3262      2.00000
    127      -2.3211      2.00000
    128      -2.3074      2.00000
    129      -2.3065      2.00000
    130      -2.2997      2.00000
    131      -2.2977      2.00000
    132      -2.2944      2.00000
    133      -2.2901      2.00000
    134      -2.2891      2.00000
    135      -2.2792      2.00000
    136      -2.2761      2.00000
    137      -2.2279      2.00000
    138      -2.2108      2.00000
    139      -2.1771      2.00000
    140      -2.1527      2.00000
    141      -2.1438      2.00000
    142      -2.1381      2.00000
    143      -2.1235      2.00000
    144      -2.1137      2.00000
    145      -2.1108      2.00000
    146      -2.1076      2.00000
    147      -2.0963      2.00000
    148      -2.0937      2.00000
    149      -2.0924      2.00000
    150      -2.0919      2.00000
    151      -2.0611      2.00000
    152      -2.0593      2.00000
    153      -2.0115      2.00000
    154      -1.9795      2.00000
    155      -1.9774      2.00000
    156      -1.9693      2.00000
    157      -1.9674      2.00000
    158      -1.9574      2.00000
    159      -1.9533      2.00000
    160      -1.9428      2.00000
    161      -1.9370      2.00000
    162      -1.9346      2.00000
    163      -1.9329      2.00000
    164      -1.9317      2.00000
    165      -1.9305      2.00000
    166      -1.9227      2.00000
    167      -1.9174      2.00000
    168      -1.9162      2.00000
    169      -1.8923      2.00000
    170      -1.8913      2.00000
    171      -1.8551      2.00000
    172      -1.8525      2.00000
    173      -1.8512      2.00000
    174      -1.8470      2.00000
    175      -1.8440      2.00000
    176      -1.8049      2.00000
    177      -1.7699      2.00000
    178      -1.7697      2.00000
    179      -1.7683      2.00000
    180      -1.7667      2.00000
    181      -1.7584      2.00000
    182      -1.7504      2.00000
    183      -1.7491      2.00000
    184      -1.7378      2.00000
    185      -1.7177      2.00000
    186      -1.7067      2.00000
    187      -1.7046      2.00000
    188      -1.7037      2.00000
    189      -1.6981      2.00000
    190      -1.6956      2.00000
    191      -1.6917      2.00000
    192      -1.6451      2.00000
    193      -1.2241      2.00000
    194      -1.2207      2.00000
    195      -0.9651      1.99997
    196      -0.9636      1.99997
    197      -0.8859      1.99976
    198      -0.6204      1.99219
    199      -0.4995      2.06535
    200      -0.2720      1.24337
    201      -0.2679      1.20144
    202       0.0007     -0.06661
    203       0.0065     -0.06104
    204       0.8616      0.00000
    205       0.9265      0.00000
    206       1.0480      0.00000
    207       1.4214      0.00000
    208       1.4285      0.00000
    209       1.7110      0.00000
    210       1.8708      0.00000
    211       1.8726      0.00000
    212       1.9715      0.00000
    213       1.9835      0.00000
    214       3.1863      0.00000
    215       3.2361      0.00000
    216       3.2423      0.00000
    217       3.3233      0.00000
    218       3.3718      0.00000
    219       3.3943      0.00000
    220       3.4022      0.00000
    221       3.7312      0.00000
    222       3.7699      0.00000
    223       3.7780      0.00000
    224       3.7812      0.00000
    225       3.7840      0.00000
    226       3.9092      0.00000
    227       3.9121      0.00000
    228       4.6176      0.00000
    229       4.6194      0.00000
    230       4.7880      0.00000
    231       4.7890      0.00000
    232       4.9250      0.00000
    233       4.9276      0.00000
    234       5.2900      0.00000
    235       5.2926      0.00000
    236       5.3381      0.00000
    237       5.3466      0.00000
    238       5.3548      0.00000
    239       5.4106      0.00000
    240       8.0098      0.00000

 k-point     2 :       0.3750    0.1250    0.0000
  band No.  band energies     occupation 
      1      -8.3337      2.00000
      2      -7.7055      2.00000
      3      -6.8120      2.00000
      4      -6.5453      2.00000
      5      -6.2602      2.00000
      6      -6.0245      2.00000
      7      -5.6069      2.00000
      8      -5.3400      2.00000
      9      -5.2157      2.00000
     10      -5.0726      2.00000
     11      -4.9777      2.00000
     12      -4.9075      2.00000
     13      -4.8810      2.00000
     14      -4.8704      2.00000
     15      -4.6269      2.00000
     16      -4.6000      2.00000
     17      -4.5940      2.00000
     18      -4.5374      2.00000
     19      -4.5298      2.00000
     20      -4.4914      2.00000
     21      -4.3767      2.00000
     22      -4.3339      2.00000
     23      -4.3195      2.00000
     24      -4.2889      2.00000
     25      -4.2463      2.00000
     26      -4.2221      2.00000
     27      -4.2038      2.00000
     28      -4.1918      2.00000
     29      -4.1851      2.00000
     30      -4.1586      2.00000
     31      -4.1335      2.00000
     32      -4.1241      2.00000
     33      -4.0418      2.00000
     34      -4.0324      2.00000
     35      -3.9552      2.00000
     36      -3.9434      2.00000
     37      -3.9193      2.00000
     38      -3.9140      2.00000
     39      -3.8554      2.00000
     40      -3.8477      2.00000
     41      -3.8310      2.00000
     42      -3.8050      2.00000
     43      -3.7869      2.00000
     44      -3.7301      2.00000
     45      -3.7275      2.00000
     46      -3.7163      2.00000
     47      -3.6645      2.00000
     48      -3.6255      2.00000
     49      -3.6174      2.00000
     50      -3.5951      2.00000
     51      -3.5940      2.00000
     52      -3.5285      2.00000
     53      -3.4969      2.00000
     54      -3.4782      2.00000
     55      -3.4611      2.00000
     56      -3.4493      2.00000
     57      -3.4321      2.00000
     58      -3.4195      2.00000
     59      -3.3830      2.00000
     60      -3.3732      2.00000
     61      -3.3543      2.00000
     62      -3.3500      2.00000
     63      -3.3361      2.00000
     64      -3.3351      2.00000
     65      -3.3132      2.00000
     66      -3.3065      2.00000
     67      -3.2873      2.00000
     68      -3.2211      2.00000
     69      -3.1808      2.00000
     70      -3.1541      2.00000
     71      -3.1365      2.00000
     72      -3.1347      2.00000
     73      -3.1195      2.00000
     74      -3.1012      2.00000
     75      -3.0584      2.00000
     76      -3.0331      2.00000
     77      -3.0124      2.00000
     78      -3.0079      2.00000
     79      -2.9985      2.00000
     80      -2.9931      2.00000
     81      -2.9874      2.00000
     82      -2.9824      2.00000
     83      -2.9765      2.00000
     84      -2.9643      2.00000
     85      -2.9568      2.00000
     86      -2.9379      2.00000
     87      -2.9284      2.00000
     88      -2.9236      2.00000
     89      -2.9018      2.00000
     90      -2.8920      2.00000
     91      -2.8871      2.00000
     92      -2.8752      2.00000
     93      -2.8600      2.00000
     94      -2.8265      2.00000
     95      -2.8173      2.00000
     96      -2.7891      2.00000
     97      -2.7673      2.00000
     98      -2.7594      2.00000
     99      -2.7062      2.00000
    100      -2.6965      2.00000
    101      -2.6566      2.00000
    102      -2.6521      2.00000
    103      -2.6402      2.00000
    104      -2.6370      2.00000
    105      -2.6300      2.00000
    106      -2.6278      2.00000
    107      -2.6091      2.00000
    108      -2.6047      2.00000
    109      -2.5949      2.00000
    110      -2.5738      2.00000
    111      -2.5583      2.00000
    112      -2.5465      2.00000
    113      -2.5213      2.00000
    114      -2.5158      2.00000
    115      -2.4956      2.00000
    116      -2.4915      2.00000
    117      -2.4874      2.00000
    118      -2.4835      2.00000
    119      -2.4651      2.00000
    120      -2.4524      2.00000
    121      -2.4379      2.00000
    122      -2.4328      2.00000
    123      -2.4071      2.00000
    124      -2.4041      2.00000
    125      -2.3955      2.00000
    126      -2.3384      2.00000
    127      -2.3112      2.00000
    128      -2.2889      2.00000
    129      -2.2818      2.00000
    130      -2.2747      2.00000
    131      -2.2678      2.00000
    132      -2.2595      2.00000
    133      -2.2374      2.00000
    134      -2.2262      2.00000
    135      -2.2216      2.00000
    136      -2.2183      2.00000
    137      -2.2050      2.00000
    138      -2.2010      2.00000
    139      -2.1889      2.00000
    140      -2.1790      2.00000
    141      -2.1698      2.00000
    142      -2.1660      2.00000
    143      -2.1603      2.00000
    144      -2.1552      2.00000
    145      -2.1360      2.00000
    146      -2.1302      2.00000
    147      -2.1144      2.00000
    148      -2.1052      2.00000
    149      -2.0742      2.00000
    150      -2.0684      2.00000
    151      -2.0644      2.00000
    152      -2.0319      2.00000
    153      -2.0165      2.00000
    154      -2.0123      2.00000
    155      -1.9976      2.00000
    156      -1.9943      2.00000
    157      -1.9644      2.00000
    158      -1.9559      2.00000
    159      -1.9355      2.00000
    160      -1.9317      2.00000
    161      -1.9308      2.00000
    162      -1.9233      2.00000
    163      -1.9141      2.00000
    164      -1.9115      2.00000
    165      -1.9075      2.00000
    166      -1.8959      2.00000
    167      -1.8747      2.00000
    168      -1.8732      2.00000
    169      -1.8725      2.00000
    170      -1.8695      2.00000
    171      -1.8593      2.00000
    172      -1.8489      2.00000
    173      -1.8457      2.00000
    174      -1.8418      2.00000
    175      -1.8266      2.00000
    176      -1.8052      2.00000
    177      -1.7876      2.00000
    178      -1.7795      2.00000
    179      -1.7665      2.00000
    180      -1.7622      2.00000
    181      -1.7537      2.00000
    182      -1.7263      2.00000
    183      -1.7101      2.00000
    184      -1.7093      2.00000
    185      -1.6938      2.00000
    186      -1.6714      2.00000
    187      -1.6179      2.00000
    188      -1.5789      2.00000
    189      -1.5571      2.00000
    190      -1.4963      2.00000
    191      -1.4556      2.00000
    192      -1.3896      2.00000
    193      -1.3200      2.00000
    194      -0.9670      1.99998
    195      -0.8769      1.99970
    196      -0.7432      1.99550
    197      -0.5715      2.00767
    198      -0.1551      0.15999
    199       0.0347     -0.03496
    200       0.0447     -0.02681
    201       0.1243      0.00800
    202       0.2255      0.00593
    203       0.3678      0.00040
    204       0.5570      0.00000
    205       0.7995      0.00000
    206       0.9983      0.00000
    207       1.3748      0.00000
    208       1.4815      0.00000
    209       1.7872      0.00000
    210       1.7959      0.00000
    211       2.0490      0.00000
    212       2.2886      0.00000
    213       2.3465      0.00000
    214       2.3844      0.00000
    215       2.4592      0.00000
    216       2.4841      0.00000
    217       2.7447      0.00000
    218       2.8082      0.00000
    219       2.9344      0.00000
    220       3.0155      0.00000
    221       3.4594      0.00000
    222       3.4765      0.00000
    223       3.6481      0.00000
    224       3.7314      0.00000
    225       3.8768      0.00000
    226       3.9010      0.00000
    227       4.1179      0.00000
    228       4.1290      0.00000
    229       4.2040      0.00000
    230       4.2946      0.00000
    231       4.3888      0.00000
    232       4.7375      0.00000
    233       4.7612      0.00000
    234       4.8281      0.00000
    235       5.0528      0.00000
    236       5.0977      0.00000
    237       5.2204      0.00000
    238       5.4543      0.00000
    239       5.6417      0.00000
    240       5.7668      0.00000

 k-point     3 :      -0.3750    0.1250    0.0000
  band No.  band energies     occupation 
      1      -8.3337      2.00000
      2      -7.7055      2.00000
      3      -6.8120      2.00000
      4      -6.5454      2.00000
      5      -6.2601      2.00000
      6      -6.0245      2.00000
      7      -5.6069      2.00000
      8      -5.3400      2.00000
      9      -5.2157      2.00000
     10      -5.0727      2.00000
     11      -4.9776      2.00000
     12      -4.9074      2.00000
     13      -4.8813      2.00000
     14      -4.8701      2.00000
     15      -4.6269      2.00000
     16      -4.5999      2.00000
     17      -4.5941      2.00000
     18      -4.5372      2.00000
     19      -4.5295      2.00000
     20      -4.4920      2.00000
     21      -4.3767      2.00000
     22      -4.3338      2.00000
     23      -4.3195      2.00000
     24      -4.2888      2.00000
     25      -4.2463      2.00000
     26      -4.2223      2.00000
     27      -4.2038      2.00000
     28      -4.1919      2.00000
     29      -4.1847      2.00000
     30      -4.1589      2.00000
     31      -4.1336      2.00000
     32      -4.1237      2.00000
     33      -4.0423      2.00000
     34      -4.0319      2.00000
     35      -3.9552      2.00000
     36      -3.9436      2.00000
     37      -3.9192      2.00000
     38      -3.9139      2.00000
     39      -3.8558      2.00000
     40      -3.8481      2.00000
     41      -3.8308      2.00000
     42      -3.8043      2.00000
     43      -3.7872      2.00000
     44      -3.7300      2.00000
     45      -3.7274      2.00000
     46      -3.7163      2.00000
     47      -3.6646      2.00000
     48      -3.6258      2.00000
     49      -3.6175      2.00000
     50      -3.5948      2.00000
     51      -3.5938      2.00000
     52      -3.5289      2.00000
     53      -3.4974      2.00000
     54      -3.4779      2.00000
     55      -3.4610      2.00000
     56      -3.4493      2.00000
     57      -3.4319      2.00000
     58      -3.4193      2.00000
     59      -3.3832      2.00000
     60      -3.3733      2.00000
     61      -3.3541      2.00000
     62      -3.3494      2.00000
     63      -3.3367      2.00000
     64      -3.3352      2.00000
     65      -3.3131      2.00000
     66      -3.3066      2.00000
     67      -3.2870      2.00000
     68      -3.2208      2.00000
     69      -3.1807      2.00000
     70      -3.1539      2.00000
     71      -3.1367      2.00000
     72      -3.1347      2.00000
     73      -3.1195      2.00000
     74      -3.1010      2.00000
     75      -3.0587      2.00000
     76      -3.0330      2.00000
     77      -3.0127      2.00000
     78      -3.0078      2.00000
     79      -2.9977      2.00000
     80      -2.9934      2.00000
     81      -2.9882      2.00000
     82      -2.9831      2.00000
     83      -2.9776      2.00000
     84      -2.9628      2.00000
     85      -2.9565      2.00000
     86      -2.9374      2.00000
     87      -2.9280      2.00000
     88      -2.9240      2.00000
     89      -2.9023      2.00000
     90      -2.8915      2.00000
     91      -2.8868      2.00000
     92      -2.8753      2.00000
     93      -2.8603      2.00000
     94      -2.8269      2.00000
     95      -2.8174      2.00000
     96      -2.7890      2.00000
     97      -2.7674      2.00000
     98      -2.7590      2.00000
     99      -2.7062      2.00000
    100      -2.6967      2.00000
    101      -2.6568      2.00000
    102      -2.6526      2.00000
    103      -2.6391      2.00000
    104      -2.6366      2.00000
    105      -2.6301      2.00000
    106      -2.6284      2.00000
    107      -2.6095      2.00000
    108      -2.6036      2.00000
    109      -2.5945      2.00000
    110      -2.5740      2.00000
    111      -2.5591      2.00000
    112      -2.5465      2.00000
    113      -2.5220      2.00000
    114      -2.5160      2.00000
    115      -2.4953      2.00000
    116      -2.4916      2.00000
    117      -2.4878      2.00000
    118      -2.4827      2.00000
    119      -2.4656      2.00000
    120      -2.4523      2.00000
    121      -2.4382      2.00000
    122      -2.4320      2.00000
    123      -2.4074      2.00000
    124      -2.4036      2.00000
    125      -2.3955      2.00000
    126      -2.3385      2.00000
    127      -2.3113      2.00000
    128      -2.2891      2.00000
    129      -2.2819      2.00000
    130      -2.2746      2.00000
    131      -2.2667      2.00000
    132      -2.2595      2.00000
    133      -2.2381      2.00000
    134      -2.2250      2.00000
    135      -2.2208      2.00000
    136      -2.2182      2.00000
    137      -2.2059      2.00000
    138      -2.2015      2.00000
    139      -2.1904      2.00000
    140      -2.1791      2.00000
    141      -2.1693      2.00000
    142      -2.1653      2.00000
    143      -2.1605      2.00000
    144      -2.1559      2.00000
    145      -2.1359      2.00000
    146      -2.1298      2.00000
    147      -2.1142      2.00000
    148      -2.1054      2.00000
    149      -2.0737      2.00000
    150      -2.0680      2.00000
    151      -2.0647      2.00000
    152      -2.0323      2.00000
    153      -2.0169      2.00000
    154      -2.0120      2.00000
    155      -1.9974      2.00000
    156      -1.9942      2.00000
    157      -1.9647      2.00000
    158      -1.9558      2.00000
    159      -1.9356      2.00000
    160      -1.9319      2.00000
    161      -1.9307      2.00000
    162      -1.9233      2.00000
    163      -1.9143      2.00000
    164      -1.9114      2.00000
    165      -1.9073      2.00000
    166      -1.8964      2.00000
    167      -1.8742      2.00000
    168      -1.8734      2.00000
    169      -1.8724      2.00000
    170      -1.8695      2.00000
    171      -1.8593      2.00000
    172      -1.8488      2.00000
    173      -1.8456      2.00000
    174      -1.8421      2.00000
    175      -1.8264      2.00000
    176      -1.8052      2.00000
    177      -1.7877      2.00000
    178      -1.7798      2.00000
    179      -1.7661      2.00000
    180      -1.7623      2.00000
    181      -1.7539      2.00000
    182      -1.7263      2.00000
    183      -1.7100      2.00000
    184      -1.7095      2.00000
    185      -1.6940      2.00000
    186      -1.6705      2.00000
    187      -1.6184      2.00000
    188      -1.5789      2.00000
    189      -1.5570      2.00000
    190      -1.4962      2.00000
    191      -1.4557      2.00000
    192      -1.3896      2.00000
    193      -1.3200      2.00000
    194      -0.9669      1.99998
    195      -0.8769      1.99970
    196      -0.7432      1.99550
    197      -0.5716      2.00764
    198      -0.1551      0.15976
    199       0.0352     -0.03453
    200       0.0445     -0.02698
    201       0.1239      0.00795
    202       0.2255      0.00593
    203       0.3677      0.00040
    204       0.5569      0.00000
    205       0.7995      0.00000
    206       0.9983      0.00000
    207       1.3743      0.00000
    208       1.4816      0.00000
    209       1.7875      0.00000
    210       1.7961      0.00000
    211       2.0490      0.00000
    212       2.2886      0.00000
    213       2.3464      0.00000
    214       2.3848      0.00000
    215       2.4594      0.00000
    216       2.4835      0.00000
    217       2.7447      0.00000
    218       2.8100      0.00000
    219       2.9319      0.00000
    220       3.0157      0.00000
    221       3.4592      0.00000
    222       3.4769      0.00000
    223       3.6482      0.00000
    224       3.7313      0.00000
    225       3.8769      0.00000
    226       3.9010      0.00000
    227       4.1184      0.00000
    228       4.1286      0.00000
    229       4.2038      0.00000
    230       4.2946      0.00000
    231       4.3889      0.00000
    232       4.7371      0.00000
    233       4.7610      0.00000
    234       4.8280      0.00000
    235       5.0523      0.00000
    236       5.0949      0.00000
    237       5.2198      0.00000
    238       5.2988      0.00000
    239       5.6114      0.00000
    240       5.7048      0.00000

 k-point     4 :      -0.1250    0.1250    0.0000
  band No.  band energies     occupation 
      1      -8.6582      2.00000
      2      -7.1118      2.00000
      3      -6.8331      2.00000
      4      -6.8283      2.00000
      5      -5.8491      2.00000
      6      -5.8440      2.00000
      7      -5.5981      2.00000
      8      -5.5894      2.00000
      9      -5.3963      2.00000
     10      -5.2171      2.00000
     11      -5.0850      2.00000
     12      -5.0771      2.00000
     13      -4.8649      2.00000
     14      -4.8634      2.00000
     15      -4.7651      2.00000
     16      -4.6832      2.00000
     17      -4.4654      2.00000
     18      -4.4392      2.00000
     19      -4.4292      2.00000
     20      -4.4087      2.00000
     21      -4.4013      2.00000
     22      -4.3560      2.00000
     23      -4.2855      2.00000
     24      -4.2263      2.00000
     25      -4.2247      2.00000
     26      -4.1634      2.00000
     27      -4.1500      2.00000
     28      -4.1463      2.00000
     29      -4.1113      2.00000
     30      -4.1060      2.00000
     31      -4.1007      2.00000
     32      -4.0907      2.00000
     33      -4.0838      2.00000
     34      -4.0157      2.00000
     35      -4.0096      2.00000
     36      -4.0063      2.00000
     37      -4.0006      2.00000
     38      -3.9914      2.00000
     39      -3.9106      2.00000
     40      -3.9069      2.00000
     41      -3.8592      2.00000
     42      -3.8428      2.00000
     43      -3.8183      2.00000
     44      -3.8118      2.00000
     45      -3.7251      2.00000
     46      -3.6137      2.00000
     47      -3.6113      2.00000
     48      -3.6011      2.00000
     49      -3.5945      2.00000
     50      -3.5618      2.00000
     51      -3.5346      2.00000
     52      -3.5139      2.00000
     53      -3.5068      2.00000
     54      -3.5042      2.00000
     55      -3.4631      2.00000
     56      -3.3968      2.00000
     57      -3.3950      2.00000
     58      -3.3754      2.00000
     59      -3.3338      2.00000
     60      -3.3308      2.00000
     61      -3.3278      2.00000
     62      -3.3055      2.00000
     63      -3.2836      2.00000
     64      -3.2781      2.00000
     65      -3.2752      2.00000
     66      -3.2577      2.00000
     67      -3.2508      2.00000
     68      -3.2458      2.00000
     69      -3.1952      2.00000
     70      -3.1922      2.00000
     71      -3.1874      2.00000
     72      -3.0898      2.00000
     73      -3.0806      2.00000
     74      -3.0693      2.00000
     75      -3.0633      2.00000
     76      -3.0355      2.00000
     77      -3.0222      2.00000
     78      -3.0161      2.00000
     79      -2.9818      2.00000
     80      -2.9755      2.00000
     81      -2.9690      2.00000
     82      -2.9579      2.00000
     83      -2.9561      2.00000
     84      -2.9490      2.00000
     85      -2.9322      2.00000
     86      -2.9281      2.00000
     87      -2.9225      2.00000
     88      -2.9178      2.00000
     89      -2.9152      2.00000
     90      -2.9047      2.00000
     91      -2.8965      2.00000
     92      -2.8878      2.00000
     93      -2.8768      2.00000
     94      -2.8639      2.00000
     95      -2.8487      2.00000
     96      -2.8454      2.00000
     97      -2.7990      2.00000
     98      -2.7955      2.00000
     99      -2.7513      2.00000
    100      -2.6978      2.00000
    101      -2.6954      2.00000
    102      -2.6607      2.00000
    103      -2.6562      2.00000
    104      -2.5547      2.00000
    105      -2.5427      2.00000
    106      -2.5348      2.00000
    107      -2.5337      2.00000
    108      -2.5039      2.00000
    109      -2.4968      2.00000
    110      -2.4859      2.00000
    111      -2.4795      2.00000
    112      -2.4664      2.00000
    113      -2.4383      2.00000
    114      -2.4346      2.00000
    115      -2.4330      2.00000
    116      -2.4299      2.00000
    117      -2.4121      2.00000
    118      -2.4025      2.00000
    119      -2.3982      2.00000
    120      -2.3953      2.00000
    121      -2.3818      2.00000
    122      -2.3767      2.00000
    123      -2.3544      2.00000
    124      -2.3363      2.00000
    125      -2.3283      2.00000
    126      -2.3253      2.00000
    127      -2.3207      2.00000
    128      -2.3074      2.00000
    129      -2.3059      2.00000
    130      -2.3008      2.00000
    131      -2.2977      2.00000
    132      -2.2937      2.00000
    133      -2.2899      2.00000
    134      -2.2882      2.00000
    135      -2.2800      2.00000
    136      -2.2770      2.00000
    137      -2.2278      2.00000
    138      -2.2109      2.00000
    139      -2.1776      2.00000
    140      -2.1531      2.00000
    141      -2.1438      2.00000
    142      -2.1376      2.00000
    143      -2.1223      2.00000
    144      -2.1141      2.00000
    145      -2.1118      2.00000
    146      -2.1078      2.00000
    147      -2.0964      2.00000
    148      -2.0936      2.00000
    149      -2.0928      2.00000
    150      -2.0919      2.00000
    151      -2.0606      2.00000
    152      -2.0590      2.00000
    153      -2.0114      2.00000
    154      -1.9794      2.00000
    155      -1.9777      2.00000
    156      -1.9697      2.00000
    157      -1.9668      2.00000
    158      -1.9575      2.00000
    159      -1.9527      2.00000
    160      -1.9430      2.00000
    161      -1.9366      2.00000
    162      -1.9345      2.00000
    163      -1.9326      2.00000
    164      -1.9319      2.00000
    165      -1.9308      2.00000
    166      -1.9228      2.00000
    167      -1.9173      2.00000
    168      -1.9165      2.00000
    169      -1.8924      2.00000
    170      -1.8913      2.00000
    171      -1.8557      2.00000
    172      -1.8526      2.00000
    173      -1.8515      2.00000
    174      -1.8470      2.00000
    175      -1.8433      2.00000
    176      -1.8049      2.00000
    177      -1.7705      2.00000
    178      -1.7689      2.00000
    179      -1.7681      2.00000
    180      -1.7671      2.00000
    181      -1.7582      2.00000
    182      -1.7505      2.00000
    183      -1.7490      2.00000
    184      -1.7374      2.00000
    185      -1.7177      2.00000
    186      -1.7067      2.00000
    187      -1.7047      2.00000
    188      -1.7039      2.00000
    189      -1.6975      2.00000
    190      -1.6950      2.00000
    191      -1.6929      2.00000
    192      -1.6456      2.00000
    193      -1.2241      2.00000
    194      -1.2205      2.00000
    195      -0.9651      1.99997
    196      -0.9636      1.99997
    197      -0.8859      1.99976
    198      -0.6203      1.99220
    199      -0.4996      2.06526
    200      -0.2722      1.24566
    201      -0.2678      1.20046
    202       0.0008     -0.06656
    203       0.0066     -0.06102
    204       0.8616      0.00000
    205       0.9265      0.00000
    206       1.0479      0.00000
    207       1.4214      0.00000
    208       1.4285      0.00000
    209       1.7112      0.00000
    210       1.8702      0.00000
    211       1.8729      0.00000
    212       1.9706      0.00000
    213       1.9849      0.00000
    214       3.1856      0.00000
    215       3.2359      0.00000
    216       3.2432      0.00000
    217       3.3235      0.00000
    218       3.3714      0.00000
    219       3.3947      0.00000
    220       3.4022      0.00000
    221       3.7314      0.00000
    222       3.7707      0.00000
    223       3.7767      0.00000
    224       3.7812      0.00000
    225       3.7848      0.00000
    226       3.9089      0.00000
    227       3.9124      0.00000
    228       4.6176      0.00000
    229       4.6197      0.00000
    230       4.7876      0.00000
    231       4.7899      0.00000
    232       4.9251      0.00000
    233       4.9282      0.00000
    234       5.2902      0.00000
    235       5.2926      0.00000
    236       5.3372      0.00000
    237       5.3402      0.00000
    238       5.3596      0.00000
    239       5.4053      0.00000
    240       5.6325      0.00000

 k-point     5 :       0.1250    0.3750    0.0000
  band No.  band energies     occupation 
      1      -8.3338      2.00000
      2      -7.7057      2.00000
      3      -6.8109      2.00000
      4      -6.5467      2.00000
      5      -6.2580      2.00000
      6      -6.0259      2.00000
      7      -5.6075      2.00000
      8      -5.3404      2.00000
      9      -5.2162      2.00000
     10      -5.0728      2.00000
     11      -4.9778      2.00000
     12      -4.9078      2.00000
     13      -4.8790      2.00000
     14      -4.8714      2.00000
     15      -4.6279      2.00000
     16      -4.5999      2.00000
     17      -4.5934      2.00000
     18      -4.5385      2.00000
     19      -4.5306      2.00000
     20      -4.4901      2.00000
     21      -4.3794      2.00000
     22      -4.3294      2.00000
     23      -4.3192      2.00000
     24      -4.2832      2.00000
     25      -4.2522      2.00000
     26      -4.2143      2.00000
     27      -4.2046      2.00000
     28      -4.1955      2.00000
     29      -4.1832      2.00000
     30      -4.1558      2.00000
     31      -4.1362      2.00000
     32      -4.1300      2.00000
     33      -4.0396      2.00000
     34      -4.0330      2.00000
     35      -3.9569      2.00000
     36      -3.9458      2.00000
     37      -3.9214      2.00000
     38      -3.9113      2.00000
     39      -3.8518      2.00000
     40      -3.8471      2.00000
     41      -3.8329      2.00000
     42      -3.8042      2.00000
     43      -3.7949      2.00000
     44      -3.7289      2.00000
     45      -3.7262      2.00000
     46      -3.7141      2.00000
     47      -3.6605      2.00000
     48      -3.6223      2.00000
     49      -3.6169      2.00000
     50      -3.5994      2.00000
     51      -3.5944      2.00000
     52      -3.5309      2.00000
     53      -3.4907      2.00000
     54      -3.4829      2.00000
     55      -3.4672      2.00000
     56      -3.4439      2.00000
     57      -3.4355      2.00000
     58      -3.4224      2.00000
     59      -3.3755      2.00000
     60      -3.3700      2.00000
     61      -3.3540      2.00000
     62      -3.3491      2.00000
     63      -3.3367      2.00000
     64      -3.3283      2.00000
     65      -3.3179      2.00000
     66      -3.3103      2.00000
     67      -3.2946      2.00000
     68      -3.2201      2.00000
     69      -3.1810      2.00000
     70      -3.1501      2.00000
     71      -3.1409      2.00000
     72      -3.1364      2.00000
     73      -3.1170      2.00000
     74      -3.1038      2.00000
     75      -3.0573      2.00000
     76      -3.0353      2.00000
     77      -3.0119      2.00000
     78      -3.0042      2.00000
     79      -2.9956      2.00000
     80      -2.9928      2.00000
     81      -2.9867      2.00000
     82      -2.9830      2.00000
     83      -2.9741      2.00000
     84      -2.9701      2.00000
     85      -2.9557      2.00000
     86      -2.9413      2.00000
     87      -2.9264      2.00000
     88      -2.9253      2.00000
     89      -2.9020      2.00000
     90      -2.8921      2.00000
     91      -2.8892      2.00000
     92      -2.8678      2.00000
     93      -2.8614      2.00000
     94      -2.8273      2.00000
     95      -2.8191      2.00000
     96      -2.7923      2.00000
     97      -2.7657      2.00000
     98      -2.7626      2.00000
     99      -2.7051      2.00000
    100      -2.6912      2.00000
    101      -2.6585      2.00000
    102      -2.6535      2.00000
    103      -2.6415      2.00000
    104      -2.6353      2.00000
    105      -2.6304      2.00000
    106      -2.6265      2.00000
    107      -2.6092      2.00000
    108      -2.6042      2.00000
    109      -2.5911      2.00000
    110      -2.5743      2.00000
    111      -2.5648      2.00000
    112      -2.5481      2.00000
    113      -2.5182      2.00000
    114      -2.5030      2.00000
    115      -2.5011      2.00000
    116      -2.4940      2.00000
    117      -2.4911      2.00000
    118      -2.4848      2.00000
    119      -2.4598      2.00000
    120      -2.4524      2.00000
    121      -2.4385      2.00000
    122      -2.4199      2.00000
    123      -2.4121      2.00000
    124      -2.4046      2.00000
    125      -2.3970      2.00000
    126      -2.3373      2.00000
    127      -2.3076      2.00000
    128      -2.2911      2.00000
    129      -2.2823      2.00000
    130      -2.2745      2.00000
    131      -2.2682      2.00000
    132      -2.2584      2.00000
    133      -2.2373      2.00000
    134      -2.2267      2.00000
    135      -2.2188      2.00000
    136      -2.2147      2.00000
    137      -2.2052      2.00000
    138      -2.2028      2.00000
    139      -2.1876      2.00000
    140      -2.1767      2.00000
    141      -2.1718      2.00000
    142      -2.1710      2.00000
    143      -2.1567      2.00000
    144      -2.1558      2.00000
    145      -2.1342      2.00000
    146      -2.1315      2.00000
    147      -2.1144      2.00000
    148      -2.1047      2.00000
    149      -2.0759      2.00000
    150      -2.0696      2.00000
    151      -2.0651      2.00000
    152      -2.0315      2.00000
    153      -2.0155      2.00000
    154      -2.0101      2.00000
    155      -1.9988      2.00000
    156      -1.9942      2.00000
    157      -1.9625      2.00000
    158      -1.9549      2.00000
    159      -1.9328      2.00000
    160      -1.9320      2.00000
    161      -1.9312      2.00000
    162      -1.9228      2.00000
    163      -1.9163      2.00000
    164      -1.9123      2.00000
    165      -1.9097      2.00000
    166      -1.8962      2.00000
    167      -1.8769      2.00000
    168      -1.8739      2.00000
    169      -1.8721      2.00000
    170      -1.8700      2.00000
    171      -1.8603      2.00000
    172      -1.8471      2.00000
    173      -1.8450      2.00000
    174      -1.8421      2.00000
    175      -1.8269      2.00000
    176      -1.8055      2.00000
    177      -1.7887      2.00000
    178      -1.7773      2.00000
    179      -1.7674      2.00000
    180      -1.7632      2.00000
    181      -1.7536      2.00000
    182      -1.7253      2.00000
    183      -1.7102      2.00000
    184      -1.7089      2.00000
    185      -1.6935      2.00000
    186      -1.6703      2.00000
    187      -1.6198      2.00000
    188      -1.5800      2.00000
    189      -1.5582      2.00000
    190      -1.4964      2.00000
    191      -1.4561      2.00000
    192      -1.3902      2.00000
    193      -1.3209      2.00000
    194      -0.9682      1.99998
    195      -0.8782      1.99971
    196      -0.7438      1.99553
    197      -0.5719      2.00747
    198      -0.1561      0.16589
    199       0.0347     -0.03497
    200       0.0462     -0.02562
    201       0.1227      0.00778
    202       0.2237      0.00607
    203       0.3653      0.00043
    204       0.5593      0.00000
    205       0.7995      0.00000
    206       0.9974      0.00000
    207       1.3742      0.00000
    208       1.4840      0.00000
    209       1.7834      0.00000
    210       1.7999      0.00000
    211       2.0485      0.00000
    212       2.2865      0.00000
    213       2.3498      0.00000
    214       2.3842      0.00000
    215       2.4575      0.00000
    216       2.4850      0.00000
    217       2.7444      0.00000
    218       2.8112      0.00000
    219       2.9316      0.00000
    220       3.0156      0.00000
    221       3.4605      0.00000
    222       3.4772      0.00000
    223       3.6481      0.00000
    224       3.7313      0.00000
    225       3.8769      0.00000
    226       3.8993      0.00000
    227       4.1194      0.00000
    228       4.1334      0.00000
    229       4.1997      0.00000
    230       4.2943      0.00000
    231       4.3894      0.00000
    232       4.7412      0.00000
    233       4.7632      0.00000
    234       4.8241      0.00000
    235       5.0537      0.00000
    236       5.0983      0.00000
    237       5.2267      0.00000
    238       5.3206      0.00000
    239       5.6923      0.00000
    240       8.2871      0.00000

 k-point     6 :       0.3750    0.3750    0.0000
  band No.  band energies     occupation 
      1      -8.0137      2.00000
      2      -7.4003      2.00000
      3      -7.3934      2.00000
      4      -6.8096      2.00000
      5      -6.5158      2.00000
      6      -5.9808      2.00000
      7      -5.9722      2.00000
      8      -5.4721      2.00000
      9      -4.8856      2.00000
     10      -4.8786      2.00000
     11      -4.7436      2.00000
     12      -4.7029      2.00000
     13      -4.6945      2.00000
     14      -4.6489      2.00000
     15      -4.6224      2.00000
     16      -4.6186      2.00000
     17      -4.5934      2.00000
     18      -4.4423      2.00000
     19      -4.4262      2.00000
     20      -4.4218      2.00000
     21      -4.4044      2.00000
     22      -4.3996      2.00000
     23      -4.2795      2.00000
     24      -4.2764      2.00000
     25      -4.2469      2.00000
     26      -4.2400      2.00000
     27      -4.2097      2.00000
     28      -4.2032      2.00000
     29      -4.1929      2.00000
     30      -4.1901      2.00000
     31      -4.1212      2.00000
     32      -4.1002      2.00000
     33      -4.0977      2.00000
     34      -4.0928      2.00000
     35      -4.0472      2.00000
     36      -4.0427      2.00000
     37      -4.0229      2.00000
     38      -3.9633      2.00000
     39      -3.9601      2.00000
     40      -3.9545      2.00000
     41      -3.9142      2.00000
     42      -3.7864      2.00000
     43      -3.7486      2.00000
     44      -3.7093      2.00000
     45      -3.7061      2.00000
     46      -3.6455      2.00000
     47      -3.6348      2.00000
     48      -3.6205      2.00000
     49      -3.6145      2.00000
     50      -3.6077      2.00000
     51      -3.5927      2.00000
     52      -3.5863      2.00000
     53      -3.5526      2.00000
     54      -3.5438      2.00000
     55      -3.5143      2.00000
     56      -3.4271      2.00000
     57      -3.4182      2.00000
     58      -3.4109      2.00000
     59      -3.4035      2.00000
     60      -3.3657      2.00000
     61      -3.3583      2.00000
     62      -3.3200      2.00000
     63      -3.3177      2.00000
     64      -3.2834      2.00000
     65      -3.2750      2.00000
     66      -3.2554      2.00000
     67      -3.2495      2.00000
     68      -3.2348      2.00000
     69      -3.2262      2.00000
     70      -3.1773      2.00000
     71      -3.1686      2.00000
     72      -3.1475      2.00000
     73      -3.1443      2.00000
     74      -3.1344      2.00000
     75      -3.1244      2.00000
     76      -3.0890      2.00000
     77      -3.0552      2.00000
     78      -3.0490      2.00000
     79      -3.0448      2.00000
     80      -3.0404      2.00000
     81      -3.0379      2.00000
     82      -3.0291      2.00000
     83      -2.9710      2.00000
     84      -2.9613      2.00000
     85      -2.9578      2.00000
     86      -2.9405      2.00000
     87      -2.9175      2.00000
     88      -2.9141      2.00000
     89      -2.8880      2.00000
     90      -2.8845      2.00000
     91      -2.8608      2.00000
     92      -2.8566      2.00000
     93      -2.8520      2.00000
     94      -2.8123      2.00000
     95      -2.8103      2.00000
     96      -2.7603      2.00000
     97      -2.7502      2.00000
     98      -2.7468      2.00000
     99      -2.7289      2.00000
    100      -2.7113      2.00000
    101      -2.7049      2.00000
    102      -2.6715      2.00000
    103      -2.6592      2.00000
    104      -2.6479      2.00000
    105      -2.6414      2.00000
    106      -2.6390      2.00000
    107      -2.6356      2.00000
    108      -2.6330      2.00000
    109      -2.6201      2.00000
    110      -2.6106      2.00000
    111      -2.5599      2.00000
    112      -2.5565      2.00000
    113      -2.5540      2.00000
    114      -2.5483      2.00000
    115      -2.5311      2.00000
    116      -2.5243      2.00000
    117      -2.5087      2.00000
    118      -2.5056      2.00000
    119      -2.5004      2.00000
    120      -2.4957      2.00000
    121      -2.4906      2.00000
    122      -2.4848      2.00000
    123      -2.4789      2.00000
    124      -2.4671      2.00000
    125      -2.4639      2.00000
    126      -2.4633      2.00000
    127      -2.4326      2.00000
    128      -2.4088      2.00000
    129      -2.4053      2.00000
    130      -2.3831      2.00000
    131      -2.3245      2.00000
    132      -2.3209      2.00000
    133      -2.2733      2.00000
    134      -2.2698      2.00000
    135      -2.2237      2.00000
    136      -2.2216      2.00000
    137      -2.2209      2.00000
    138      -2.1887      2.00000
    139      -2.1684      2.00000
    140      -2.1650      2.00000
    141      -2.1615      2.00000
    142      -2.1591      2.00000
    143      -2.1537      2.00000
    144      -2.1499      2.00000
    145      -2.1456      2.00000
    146      -2.1154      2.00000
    147      -2.1151      2.00000
    148      -2.0834      2.00000
    149      -2.0798      2.00000
    150      -2.0620      2.00000
    151      -2.0339      2.00000
    152      -2.0008      2.00000
    153      -1.9946      2.00000
    154      -1.9832      2.00000
    155      -1.9767      2.00000
    156      -1.9751      2.00000
    157      -1.9746      2.00000
    158      -1.9720      2.00000
    159      -1.9564      2.00000
    160      -1.9532      2.00000
    161      -1.9488      2.00000
    162      -1.9478      2.00000
    163      -1.9325      2.00000
    164      -1.9312      2.00000
    165      -1.9300      2.00000
    166      -1.9293      2.00000
    167      -1.8661      2.00000
    168      -1.8459      2.00000
    169      -1.8426      2.00000
    170      -1.8262      2.00000
    171      -1.8252      2.00000
    172      -1.8194      2.00000
    173      -1.8104      2.00000
    174      -1.7975      2.00000
    175      -1.7969      2.00000
    176      -1.7829      2.00000
    177      -1.7823      2.00000
    178      -1.7576      2.00000
    179      -1.7552      2.00000
    180      -1.7532      2.00000
    181      -1.7495      2.00000
    182      -1.7401      2.00000
    183      -1.7391      2.00000
    184      -1.7288      2.00000
    185      -1.7217      2.00000
    186      -1.6736      2.00000
    187      -1.4944      2.00000
    188      -1.3951      2.00000
    189      -1.3763      2.00000
    190      -1.1233      2.00000
    191      -1.1218      2.00000
    192      -0.7892      1.99791
    193      -0.7868      1.99782
    194      -0.6420      1.99032
    195      -0.4585      2.09836
    196      -0.4576      2.09879
    197      -0.3120      1.62039
    198      -0.3073      1.58042
    199       0.2468      0.00444
    200       0.4646      0.00003
    201       0.4691      0.00002
    202       0.6533      0.00000
    203       0.6552      0.00000
    204       0.7459      0.00000
    205       0.7504      0.00000
    206       0.9175      0.00000
    207       0.9284      0.00000
    208       1.1564      0.00000
    209       1.1597      0.00000
    210       1.5700      0.00000
    211       1.7273      0.00000
    212       1.7385      0.00000
    213       1.7978      0.00000
    214       1.9469      0.00000
    215       2.3937      0.00000
    216       2.5414      0.00000
    217       2.7236      0.00000
    218       2.7266      0.00000
    219       2.9756      0.00000
    220       2.9834      0.00000
    221       3.0989      0.00000
    222       3.1024      0.00000
    223       3.3215      0.00000
    224       3.3234      0.00000
    225       3.4164      0.00000
    226       3.6890      0.00000
    227       3.7749      0.00000
    228       3.7760      0.00000
    229       3.8094      0.00000
    230       3.9727      0.00000
    231       4.3713      0.00000
    232       4.3789      0.00000
    233       4.5677      0.00000
    234       4.6169      0.00000
    235       4.6191      0.00000
    236       5.2566      0.00000
    237       5.2605      0.00000
    238       5.2658      0.00000
    239       5.7026      0.00000
    240       5.7824      0.00000

 k-point     7 :      -0.3750    0.3750    0.0000
  band No.  band energies     occupation 
      1      -8.0137      2.00000
      2      -7.3996      2.00000
      3      -7.3941      2.00000
      4      -6.8095      2.00000
      5      -6.5158      2.00000
      6      -5.9819      2.00000
      7      -5.9712      2.00000
      8      -5.4721      2.00000
      9      -4.8857      2.00000
     10      -4.8785      2.00000
     11      -4.7436      2.00000
     12      -4.7032      2.00000
     13      -4.6940      2.00000
     14      -4.6488      2.00000
     15      -4.6215      2.00000
     16      -4.6188      2.00000
     17      -4.5944      2.00000
     18      -4.4424      2.00000
     19      -4.4266      2.00000
     20      -4.4212      2.00000
     21      -4.4038      2.00000
     22      -4.4004      2.00000
     23      -4.2791      2.00000
     24      -4.2767      2.00000
     25      -4.2469      2.00000
     26      -4.2397      2.00000
     27      -4.2094      2.00000
     28      -4.2033      2.00000
     29      -4.1936      2.00000
     30      -4.1901      2.00000
     31      -4.1214      2.00000
     32      -4.1003      2.00000
     33      -4.0975      2.00000
     34      -4.0929      2.00000
     35      -4.0473      2.00000
     36      -4.0426      2.00000
     37      -4.0227      2.00000
     38      -3.9629      2.00000
     39      -3.9602      2.00000
     40      -3.9547      2.00000
     41      -3.9142      2.00000
     42      -3.7865      2.00000
     43      -3.7484      2.00000
     44      -3.7091      2.00000
     45      -3.7061      2.00000
     46      -3.6461      2.00000
     47      -3.6352      2.00000
     48      -3.6204      2.00000
     49      -3.6141      2.00000
     50      -3.6087      2.00000
     51      -3.5920      2.00000
     52      -3.5863      2.00000
     53      -3.5523      2.00000
     54      -3.5432      2.00000
     55      -3.5144      2.00000
     56      -3.4272      2.00000
     57      -3.4183      2.00000
     58      -3.4104      2.00000
     59      -3.4037      2.00000
     60      -3.3661      2.00000
     61      -3.3584      2.00000
     62      -3.3203      2.00000
     63      -3.3174      2.00000
     64      -3.2851      2.00000
     65      -3.2741      2.00000
     66      -3.2562      2.00000
     67      -3.2474      2.00000
     68      -3.2347      2.00000
     69      -3.2254      2.00000
     70      -3.1786      2.00000
     71      -3.1688      2.00000
     72      -3.1476      2.00000
     73      -3.1437      2.00000
     74      -3.1344      2.00000
     75      -3.1247      2.00000
     76      -3.0894      2.00000
     77      -3.0553      2.00000
     78      -3.0486      2.00000
     79      -3.0454      2.00000
     80      -3.0400      2.00000
     81      -3.0378      2.00000
     82      -3.0288      2.00000
     83      -2.9723      2.00000
     84      -2.9610      2.00000
     85      -2.9570      2.00000
     86      -2.9391      2.00000
     87      -2.9175      2.00000
     88      -2.9146      2.00000
     89      -2.8882      2.00000
     90      -2.8848      2.00000
     91      -2.8614      2.00000
     92      -2.8562      2.00000
     93      -2.8524      2.00000
     94      -2.8132      2.00000
     95      -2.8096      2.00000
     96      -2.7599      2.00000
     97      -2.7502      2.00000
     98      -2.7469      2.00000
     99      -2.7292      2.00000
    100      -2.7117      2.00000
    101      -2.7050      2.00000
    102      -2.6716      2.00000
    103      -2.6598      2.00000
    104      -2.6471      2.00000
    105      -2.6411      2.00000
    106      -2.6392      2.00000
    107      -2.6351      2.00000
    108      -2.6335      2.00000
    109      -2.6209      2.00000
    110      -2.6090      2.00000
    111      -2.5596      2.00000
    112      -2.5570      2.00000
    113      -2.5538      2.00000
    114      -2.5476      2.00000
    115      -2.5319      2.00000
    116      -2.5242      2.00000
    117      -2.5085      2.00000
    118      -2.5056      2.00000
    119      -2.4991      2.00000
    120      -2.4954      2.00000
    121      -2.4912      2.00000
    122      -2.4850      2.00000
    123      -2.4804      2.00000
    124      -2.4674      2.00000
    125      -2.4642      2.00000
    126      -2.4628      2.00000
    127      -2.4328      2.00000
    128      -2.4075      2.00000
    129      -2.4059      2.00000
    130      -2.3840      2.00000
    131      -2.3247      2.00000
    132      -2.3200      2.00000
    133      -2.2729      2.00000
    134      -2.2701      2.00000
    135      -2.2240      2.00000
    136      -2.2219      2.00000
    137      -2.2210      2.00000
    138      -2.1886      2.00000
    139      -2.1681      2.00000
    140      -2.1654      2.00000
    141      -2.1626      2.00000
    142      -2.1587      2.00000
    143      -2.1538      2.00000
    144      -2.1499      2.00000
    145      -2.1451      2.00000
    146      -2.1153      2.00000
    147      -2.1151      2.00000
    148      -2.0832      2.00000
    149      -2.0799      2.00000
    150      -2.0620      2.00000
    151      -2.0338      2.00000
    152      -2.0010      2.00000
    153      -1.9944      2.00000
    154      -1.9835      2.00000
    155      -1.9769      2.00000
    156      -1.9752      2.00000
    157      -1.9743      2.00000
    158      -1.9718      2.00000
    159      -1.9563      2.00000
    160      -1.9535      2.00000
    161      -1.9485      2.00000
    162      -1.9477      2.00000
    163      -1.9322      2.00000
    164      -1.9313      2.00000
    165      -1.9299      2.00000
    166      -1.9294      2.00000
    167      -1.8660      2.00000
    168      -1.8460      2.00000
    169      -1.8429      2.00000
    170      -1.8265      2.00000
    171      -1.8250      2.00000
    172      -1.8194      2.00000
    173      -1.8106      2.00000
    174      -1.7975      2.00000
    175      -1.7968      2.00000
    176      -1.7829      2.00000
    177      -1.7822      2.00000
    178      -1.7577      2.00000
    179      -1.7558      2.00000
    180      -1.7526      2.00000
    181      -1.7493      2.00000
    182      -1.7404      2.00000
    183      -1.7388      2.00000
    184      -1.7289      2.00000
    185      -1.7217      2.00000
    186      -1.6737      2.00000
    187      -1.4944      2.00000
    188      -1.3951      2.00000
    189      -1.3763      2.00000
    190      -1.1231      2.00000
    191      -1.1218      2.00000
    192      -0.7888      1.99790
    193      -0.7873      1.99784
    194      -0.6422      1.99032
    195      -0.4586      2.09831
    196      -0.4575      2.09884
    197      -0.3129      1.62777
    198      -0.3062      1.57059
    199       0.2467      0.00444
    200       0.4645      0.00003
    201       0.4691      0.00002
    202       0.6532      0.00000
    203       0.6551      0.00000
    204       0.7459      0.00000
    205       0.7503      0.00000
    206       0.9178      0.00000
    207       0.9282      0.00000
    208       1.1568      0.00000
    209       1.1594      0.00000
    210       1.5701      0.00000
    211       1.7296      0.00000
    212       1.7382      0.00000
    213       1.7959      0.00000
    214       1.9468      0.00000
    215       2.3938      0.00000
    216       2.5417      0.00000
    217       2.7226      0.00000
    218       2.7276      0.00000
    219       2.9746      0.00000
    220       2.9844      0.00000
    221       3.0986      0.00000
    222       3.1028      0.00000
    223       3.3218      0.00000
    224       3.3235      0.00000
    225       3.4164      0.00000
    226       3.6876      0.00000
    227       3.7741      0.00000
    228       3.7774      0.00000
    229       3.8094      0.00000
    230       3.9727      0.00000
    231       4.3710      0.00000
    232       4.3795      0.00000
    233       4.5679      0.00000
    234       4.6170      0.00000
    235       4.6190      0.00000
    236       5.2561      0.00000
    237       5.2601      0.00000
    238       5.2660      0.00000
    239       5.7016      0.00000
    240       5.9012      0.00000

 k-point     8 :      -0.1250    0.3750    0.0000
  band No.  band energies     occupation 
      1      -8.3338      2.00000
      2      -7.7057      2.00000
      3      -6.8108      2.00000
      4      -6.5467      2.00000
      5      -6.2580      2.00000
      6      -6.0259      2.00000
      7      -5.6075      2.00000
      8      -5.3405      2.00000
      9      -5.2161      2.00000
     10      -5.0728      2.00000
     11      -4.9778      2.00000
     12      -4.9077      2.00000
     13      -4.8795      2.00000
     14      -4.8709      2.00000
     15      -4.6279      2.00000
     16      -4.5997      2.00000
     17      -4.5936      2.00000
     18      -4.5393      2.00000
     19      -4.5301      2.00000
     20      -4.4899      2.00000
     21      -4.3793      2.00000
     22      -4.3294      2.00000
     23      -4.3192      2.00000
     24      -4.2834      2.00000
     25      -4.2520      2.00000
     26      -4.2144      2.00000
     27      -4.2047      2.00000
     28      -4.1955      2.00000
     29      -4.1830      2.00000
     30      -4.1556      2.00000
     31      -4.1364      2.00000
     32      -4.1300      2.00000
     33      -4.0391      2.00000
     34      -4.0336      2.00000
     35      -3.9569      2.00000
     36      -3.9455      2.00000
     37      -3.9215      2.00000
     38      -3.9116      2.00000
     39      -3.8517      2.00000
     40      -3.8473      2.00000
     41      -3.8330      2.00000
     42      -3.8044      2.00000
     43      -3.7946      2.00000
     44      -3.7290      2.00000
     45      -3.7263      2.00000
     46      -3.7136      2.00000
     47      -3.6605      2.00000
     48      -3.6221      2.00000
     49      -3.6169      2.00000
     50      -3.5998      2.00000
     51      -3.5944      2.00000
     52      -3.5310      2.00000
     53      -3.4906      2.00000
     54      -3.4834      2.00000
     55      -3.4670      2.00000
     56      -3.4435      2.00000
     57      -3.4355      2.00000
     58      -3.4228      2.00000
     59      -3.3753      2.00000
     60      -3.3700      2.00000
     61      -3.3536      2.00000
     62      -3.3492      2.00000
     63      -3.3367      2.00000
     64      -3.3283      2.00000
     65      -3.3182      2.00000
     66      -3.3103      2.00000
     67      -3.2944      2.00000
     68      -3.2201      2.00000
     69      -3.1809      2.00000
     70      -3.1501      2.00000
     71      -3.1415      2.00000
     72      -3.1367      2.00000
     73      -3.1169      2.00000
     74      -3.1033      2.00000
     75      -3.0569      2.00000
     76      -3.0346      2.00000
     77      -3.0126      2.00000
     78      -3.0049      2.00000
     79      -2.9956      2.00000
     80      -2.9932      2.00000
     81      -2.9862      2.00000
     82      -2.9823      2.00000
     83      -2.9733      2.00000
     84      -2.9716      2.00000
     85      -2.9553      2.00000
     86      -2.9411      2.00000
     87      -2.9269      2.00000
     88      -2.9236      2.00000
     89      -2.9033      2.00000
     90      -2.8921      2.00000
     91      -2.8895      2.00000
     92      -2.8675      2.00000
     93      -2.8615      2.00000
     94      -2.8271      2.00000
     95      -2.8190      2.00000
     96      -2.7929      2.00000
     97      -2.7661      2.00000
     98      -2.7628      2.00000
     99      -2.7058      2.00000
    100      -2.6911      2.00000
    101      -2.6589      2.00000
    102      -2.6517      2.00000
    103      -2.6406      2.00000
    104      -2.6354      2.00000
    105      -2.6304      2.00000
    106      -2.6261      2.00000
    107      -2.6091      2.00000
    108      -2.6043      2.00000
    109      -2.5931      2.00000
    110      -2.5743      2.00000
    111      -2.5642      2.00000
    112      -2.5486      2.00000
    113      -2.5184      2.00000
    114      -2.5036      2.00000
    115      -2.5013      2.00000
    116      -2.4932      2.00000
    117      -2.4908      2.00000
    118      -2.4839      2.00000
    119      -2.4587      2.00000
    120      -2.4524      2.00000
    121      -2.4386      2.00000
    122      -2.4207      2.00000
    123      -2.4108      2.00000
    124      -2.4043      2.00000
    125      -2.3986      2.00000
    126      -2.3372      2.00000
    127      -2.3076      2.00000
    128      -2.2908      2.00000
    129      -2.2829      2.00000
    130      -2.2745      2.00000
    131      -2.2683      2.00000
    132      -2.2582      2.00000
    133      -2.2375      2.00000
    134      -2.2272      2.00000
    135      -2.2195      2.00000
    136      -2.2140      2.00000
    137      -2.2049      2.00000
    138      -2.2033      2.00000
    139      -2.1881      2.00000
    140      -2.1766      2.00000
    141      -2.1726      2.00000
    142      -2.1709      2.00000
    143      -2.1569      2.00000
    144      -2.1552      2.00000
    145      -2.1338      2.00000
    146      -2.1313      2.00000
    147      -2.1145      2.00000
    148      -2.1044      2.00000
    149      -2.0762      2.00000
    150      -2.0693      2.00000
    151      -2.0651      2.00000
    152      -2.0311      2.00000
    153      -2.0163      2.00000
    154      -2.0096      2.00000
    155      -1.9988      2.00000
    156      -1.9943      2.00000
    157      -1.9623      2.00000
    158      -1.9548      2.00000
    159      -1.9332      2.00000
    160      -1.9322      2.00000
    161      -1.9311      2.00000
    162      -1.9226      2.00000
    163      -1.9165      2.00000
    164      -1.9125      2.00000
    165      -1.9092      2.00000
    166      -1.8961      2.00000
    167      -1.8775      2.00000
    168      -1.8739      2.00000
    169      -1.8722      2.00000
    170      -1.8697      2.00000
    171      -1.8595      2.00000
    172      -1.8471      2.00000
    173      -1.8451      2.00000
    174      -1.8423      2.00000
    175      -1.8271      2.00000
    176      -1.8055      2.00000
    177      -1.7888      2.00000
    178      -1.7773      2.00000
    179      -1.7673      2.00000
    180      -1.7633      2.00000
    181      -1.7536      2.00000
    182      -1.7253      2.00000
    183      -1.7102      2.00000
    184      -1.7088      2.00000
    185      -1.6935      2.00000
    186      -1.6705      2.00000
    187      -1.6196      2.00000
    188      -1.5801      2.00000
    189      -1.5583      2.00000
    190      -1.4966      2.00000
    191      -1.4560      2.00000
    192      -1.3903      2.00000
    193      -1.3207      2.00000
    194      -0.9682      1.99998
    195      -0.8782      1.99971
    196      -0.7438      1.99554
    197      -0.5717      2.00755
    198      -0.1561      0.16597
    199       0.0336     -0.03591
    200       0.0473     -0.02481
    201       0.1227      0.00778
    202       0.2236      0.00607
    203       0.3653      0.00043
    204       0.5593      0.00000
    205       0.7994      0.00000
    206       0.9975      0.00000
    207       1.3742      0.00000
    208       1.4841      0.00000
    209       1.7829      0.00000
    210       1.8002      0.00000
    211       2.0487      0.00000
    212       2.2862      0.00000
    213       2.3497      0.00000
    214       2.3843      0.00000
    215       2.4577      0.00000
    216       2.4854      0.00000
    217       2.7444      0.00000
    218       2.8107      0.00000
    219       2.9320      0.00000
    220       3.0157      0.00000
    221       3.4599      0.00000
    222       3.4775      0.00000
    223       3.6481      0.00000
    224       3.7312      0.00000
    225       3.8768      0.00000
    226       3.8993      0.00000
    227       4.1186      0.00000
    228       4.1339      0.00000
    229       4.2007      0.00000
    230       4.2943      0.00000
    231       4.3894      0.00000
    232       4.7407      0.00000
    233       4.7634      0.00000
    234       4.8241      0.00000
    235       5.0535      0.00000
    236       5.0960      0.00000
    237       5.2197      0.00000
    238       5.2891      0.00000
    239       5.6209      0.00000
    240       5.6765      0.00000


--------------------------------------------------------------------------------------------------------


 soft charge-density along one line, spin component           1
         0         1         2         3         4         5         6         7         8         9
 total charge-density along one line
 
 pseudopotential strength for first ion, spin component:           1
 -8.255  -0.000   0.000  -0.000   0.000  -0.678   0.000  -0.000
 -0.000  -8.247  -0.000  -0.000   0.000   0.000  -0.687   0.000
  0.000  -0.000  -8.233  -0.000  -0.000  -0.000   0.000  -0.699
 -0.000  -0.000  -0.000  -8.247  -0.000   0.000   0.000   0.000
  0.000   0.000  -0.000  -0.000  -8.275  -0.000  -0.000   0.000
 -0.678   0.000  -0.000   0.000  -0.000   7.483  -0.000   0.000
  0.000  -0.687   0.000   0.000  -0.000  -0.000   7.490  -0.000
 -0.000   0.000  -0.699   0.000   0.000   0.000  -0.000   7.499
  0.000   0.000   0.000  -0.687   0.000  -0.000  -0.000  -0.000
 -0.000  -0.000   0.000   0.000  -0.664   0.000   0.000  -0.000
  0.000   0.000  -0.006   0.000   0.000  -0.000  -0.000   0.003
  0.000   0.000  -0.011   0.000   0.000  -0.000  -0.000   0.005
 -0.000  -0.014   0.000   0.000   0.000   0.000   0.011  -0.000
  0.000  -0.000  -0.016  -0.000   0.000  -0.000   0.000   0.011
 -0.000   0.000   0.000  -0.014  -0.000   0.000  -0.000  -0.000
 -0.000  -0.016   0.000   0.000   0.000  -0.000   0.013  -0.000
  0.000  -0.000  -0.017  -0.000   0.000  -0.000   0.000   0.012
 -0.000   0.000   0.000  -0.016  -0.000  -0.000  -0.000  -0.000
 total augmentation occupancy for first ion, spin component:           1
  1.924  -0.000   0.000  -0.000   0.000  -0.035   0.000  -0.000   0.000  -0.000  -0.000  -0.000   0.000   0.000   0.000  -0.000
 -0.000   1.925   0.000  -0.000  -0.000   0.000  -0.027  -0.000   0.000  -0.000   0.000   0.000   0.032   0.000   0.000  -0.018
  0.000   0.000   1.939  -0.000  -0.000  -0.000  -0.000  -0.037   0.000   0.000  -0.002   0.013   0.000   0.049  -0.000   0.000
 -0.000  -0.000  -0.000   1.924   0.000   0.000   0.000   0.000  -0.026   0.000   0.000   0.000   0.000   0.000   0.032  -0.000
  0.000  -0.000  -0.000   0.000   1.908  -0.000  -0.000   0.000   0.000  -0.008  -0.000  -0.000  -0.000   0.000   0.000   0.000
 -0.035   0.000  -0.000   0.000  -0.000   0.011  -0.000   0.000  -0.000   0.000   0.000   0.000  -0.000  -0.000  -0.000   0.000
  0.000  -0.027  -0.000   0.000  -0.000  -0.000   0.009  -0.000  -0.000   0.000   0.000  -0.000   0.022  -0.000  -0.000  -0.001
 -0.000  -0.000  -0.037   0.000   0.000   0.000  -0.000   0.011  -0.000  -0.000  -0.031   0.001  -0.000   0.017   0.000  -0.000
  0.000   0.000   0.000  -0.026   0.000  -0.000  -0.000  -0.000   0.009  -0.000   0.000   0.000  -0.000  -0.000   0.022   0.000
 -0.000  -0.000   0.000   0.000  -0.008   0.000   0.000  -0.000  -0.000   0.012   0.000   0.000   0.000   0.000   0.000  -0.000
 -0.000   0.000  -0.002   0.000  -0.000   0.000   0.000  -0.031   0.000   0.000   1.589  -0.117   0.000   0.166   0.000  -0.000
 -0.000   0.000   0.013   0.000  -0.000   0.000  -0.000   0.001   0.000   0.000  -0.117   0.014   0.000  -0.023   0.000   0.000
  0.000   0.032   0.000   0.000  -0.000  -0.000   0.022  -0.000  -0.000   0.000   0.000   0.000   0.177  -0.000  -0.000  -0.010
  0.000   0.000   0.049   0.000   0.000  -0.000  -0.000   0.017  -0.000   0.000   0.166  -0.023  -0.000   0.104  -0.000   0.000
  0.000   0.000  -0.000   0.032   0.000  -0.000  -0.000   0.000   0.022   0.000   0.000   0.000  -0.000  -0.000   0.177   0.000
 -0.000  -0.018   0.000  -0.000   0.000   0.000  -0.001  -0.000   0.000  -0.000  -0.000   0.000  -0.010   0.000   0.000   0.001
  0.000  -0.000  -0.022  -0.000  -0.000   0.000   0.000  -0.000   0.000   0.000  -0.023   0.002   0.000  -0.008   0.000   0.000
 -0.000   0.000   0.000  -0.018  -0.000   0.000   0.000  -0.000  -0.001   0.000  -0.000   0.000   0.000  -0.000  -0.010  -0.000


------------------------ aborting loop because EDIFF is reached ----------------------------------------


    CHARGE:  cpu time    0.5981: real time    0.5982
    FORLOC:  cpu time    0.0146: real time    0.0146
    FORNL :  cpu time    2.1679: real time    2.1681
    STRESS:  cpu time    6.3800: real time    6.3805
    FORCOR:  cpu time    0.0781: real time    0.0781
    FORHAR:  cpu time    0.0282: real time    0.0282
    MIXING:  cpu time    0.0117: real time    0.0117
    OFIELD:  cpu time    0.0001: real time    0.0001

  FORCE on cell =-STRESS in cart. coord.  units (eV):
  Direction    XX          YY          ZZ          XY          YZ          ZX
  --------------------------------------------------------------------------------------
  Alpha Z   718.07260   718.07260   718.07260
  Ewald  189880.85828189876.92834************    -0.40328    -3.39754    -2.43625
  Hartree202913.00751202909.88815************    -0.21055    -1.81298    -1.41284
  E(xc)   -2312.63053 -2312.63399 -2319.75755    -0.00050    -0.00452    -0.00322
  Local  ************************405527.91398     0.59893     5.11274     3.78794
  n-local  -798.08544  -798.08354  -809.10116    -0.00598    -0.05234    -0.02481
  augment  3399.92974  3399.93285  3411.07206     0.00558     0.04682     0.02671
  Kinetic  3206.25547  3206.26567  3224.36391     0.00339     0.02736     0.02404
  Fock        0.00000     0.00000     0.00000     0.00000     0.00000     0.00000
  -------------------------------------------------------------------------------------
  Total      -3.62041    -3.59311    -3.84861    -0.01241    -0.08046    -0.03844
  in kB      -4.39460    -4.36146    -4.67160    -0.01506    -0.09767    -0.04666
  external pressure =       -4.48 kB  Pullay stress =        0.00 kB


 VOLUME and BASIS-vectors are now :
 -----------------------------------------------------------------------------
  energy-cutoff  :      544.00
  volume of cell :     1319.92
      direct lattice vectors                 reciprocal lattice vectors
     7.700375000  0.000000000  0.000000000     0.129863805  0.000000000  0.000000000
     0.000000000  7.700375000  0.000000000     0.000000000  0.129863805  0.000000000
     0.000000000  0.000000000 22.259998000     0.000000000  0.000000000  0.044923634

  length of vectors
     7.700375000  7.700375000 22.259998000     0.129863805  0.129863805  0.044923634


 FORCES acting on ions
    electron-ion (+dipol)            ewald-force                    non-local-force                 convergence-correction
 -----------------------------------------------------------------------------------------------
   0.165E+01 0.278E+01 0.327E+04   -.163E+01 -.275E+01 -.327E+04   -.225E-01 -.340E-01 -.426E+01   0.266E-04 0.101E-03 -.138E-01
   -.168E+01 0.331E+01 0.327E+04   0.166E+01 -.327E+01 -.327E+04   0.175E-01 -.334E-01 -.427E+01   0.141E-04 0.853E-04 -.138E-01
   0.320E-01 0.283E+01 0.327E+04   -.355E-01 -.280E+01 -.326E+04   0.283E-02 -.256E-01 -.429E+01   -.390E-04 0.952E-04 -.138E-01
   0.221E+01 0.256E-01 0.328E+04   -.220E+01 -.257E-01 -.327E+04   -.874E-02 0.487E-04 -.420E+01   0.381E-04 -.683E-04 -.139E-01
   -.175E+01 0.112E-01 0.328E+04   0.175E+01 -.117E-01 -.327E+04   0.139E-02 0.588E-03 -.416E+01   -.473E-04 -.965E-04 -.138E-01
   -.475E+00 0.383E-01 0.327E+04   0.465E+00 -.378E-01 -.327E+04   0.941E-02 -.352E-03 -.425E+01   0.137E-04 -.105E-03 -.138E-01
   0.163E+01 -.280E+01 0.327E+04   -.160E+01 0.277E+01 -.327E+04   -.210E-01 0.350E-01 -.425E+01   0.414E-04 -.379E-04 -.138E-01
   -.168E+01 -.332E+01 0.327E+04   0.166E+01 0.328E+01 -.327E+04   0.180E-01 0.342E-01 -.427E+01   -.287E-04 0.939E-05 -.138E-01
   0.483E-01 -.285E+01 0.327E+04   -.526E-01 0.283E+01 -.326E+04   0.354E-02 0.243E-01 -.429E+01   -.100E-04 0.828E-05 -.138E-01
   0.979E+01 -.654E+00 0.109E+04   -.977E+01 0.647E+00 -.109E+04   -.555E-01 0.140E-01 -.153E+00   -.350E-04 0.300E-04 -.260E-01
   -.259E+01 -.241E+00 0.110E+04   0.257E+01 0.238E+00 -.110E+04   0.330E-01 0.507E-02 -.232E+00   -.312E-04 0.613E-05 -.261E-01
   -.754E+01 -.381E+00 0.109E+04   0.754E+01 0.375E+00 -.109E+04   0.343E-01 0.976E-02 -.123E+00   0.738E-04 0.767E-04 -.260E-01
   0.842E+01 0.117E+02 0.110E+04   -.842E+01 -.117E+02 -.110E+04   -.413E-01 -.216E-01 -.388E+00   -.564E-04 -.957E-04 -.262E-01
   0.246E+01 0.183E+02 0.111E+04   -.247E+01 -.183E+02 -.111E+04   -.878E-02 -.960E-01 -.596E+00   -.230E-04 -.655E-04 -.264E-01
   -.106E+02 0.160E+02 0.111E+04   0.106E+02 -.160E+02 -.110E+04   0.430E-01 -.536E-01 -.489E+00   0.770E-04 -.105E-03 -.263E-01
   0.844E+01 -.116E+02 0.110E+04   -.843E+01 0.117E+02 -.110E+04   -.458E-01 0.287E-01 -.385E+00   0.971E-05 0.609E-04 -.261E-01
   0.251E+01 -.181E+02 0.111E+04   -.252E+01 0.181E+02 -.111E+04   -.130E-01 0.932E-01 -.597E+00   -.376E-04 0.575E-04 -.263E-01
   -.103E+02 -.161E+02 0.111E+04   0.103E+02 0.161E+02 -.110E+04   0.394E-01 0.618E-01 -.477E+00   0.345E-04 0.265E-04 -.262E-01
   0.210E+01 -.261E+01 -.112E+04   -.212E+01 0.259E+01 0.111E+04   0.255E-01 0.614E-01 0.417E+00   -.141E-03 -.201E-03 -.278E-01
   -.640E+01 0.121E+01 -.112E+04   0.641E+01 -.124E+01 0.112E+04   0.155E-01 0.697E-02 0.418E+00   0.881E-04 -.158E-03 -.278E-01
   0.399E+01 0.746E+01 -.114E+04   -.399E+01 -.742E+01 0.114E+04   -.325E-01 -.138E+00 0.138E+00   0.577E-04 -.197E-03 -.277E-01
   0.453E+01 -.521E+00 -.108E+04   -.451E+01 0.523E+00 0.108E+04   -.658E-01 0.373E-02 0.122E+01   -.114E-03 0.189E-04 -.280E-01
   -.810E+01 -.265E+00 -.107E+04   0.807E+01 0.270E+00 0.106E+04   0.108E+00 -.101E-02 0.162E+01   0.956E-04 0.712E-05 -.281E-01
   0.182E+01 0.598E+00 -.111E+04   -.180E+01 -.596E+00 0.111E+04   -.251E-02 -.436E-02 0.789E+00   0.126E-04 0.480E-05 -.279E-01
   0.205E+01 0.322E+01 -.111E+04   -.207E+01 -.319E+01 0.111E+04   0.226E-01 -.722E-01 0.435E+00   -.130E-03 0.179E-03 -.278E-01
   -.609E+01 -.998E+00 -.112E+04   0.610E+01 0.102E+01 0.112E+04   0.165E-01 -.951E-02 0.412E+00   0.640E-04 0.154E-03 -.279E-01
   0.391E+01 -.783E+01 -.114E+04   -.390E+01 0.778E+01 0.114E+04   -.398E-01 0.129E+00 0.136E+00   0.643E-04 0.198E-03 -.277E-01
   0.276E+01 0.156E+01 -.325E+04   -.275E+01 -.154E+01 0.324E+04   -.242E-01 -.284E-01 0.379E+01   -.937E-04 0.406E-05 -.157E-01
   0.216E+01 0.104E+01 -.324E+04   -.214E+01 -.103E+01 0.323E+04   -.166E-01 -.681E-02 0.364E+01   -.138E-03 0.292E-04 -.158E-01
   -.452E+01 0.719E+00 -.324E+04   0.448E+01 -.715E+00 0.324E+04   0.394E-01 -.764E-02 0.372E+01   0.232E-03 -.344E-05 -.157E-01
   0.118E+01 0.304E+01 -.326E+04   -.114E+01 -.294E+01 0.326E+04   -.483E-01 -.107E+00 0.349E+01   -.972E-04 -.386E-03 -.153E-01
   0.600E+01 0.102E+01 -.328E+04   -.590E+01 -.916E+00 0.327E+04   -.134E+00 -.904E-01 0.325E+01   -.112E-03 -.333E-03 -.148E-01
   -.650E+01 0.198E+01 -.328E+04   0.637E+01 -.191E+01 0.328E+04   0.169E+00 -.652E-01 0.342E+01   0.207E-03 -.325E-03 -.148E-01
   -.654E+00 -.431E+01 -.326E+04   0.673E+00 0.419E+01 0.325E+04   -.151E-01 0.137E+00 0.348E+01   -.122E-03 0.384E-03 -.154E-01
   0.556E+01 -.190E+01 -.328E+04   -.547E+01 0.181E+01 0.328E+04   -.121E+00 0.804E-01 0.327E+01   -.103E-03 0.300E-03 -.149E-01
   -.436E+01 -.232E+01 -.328E+04   0.428E+01 0.224E+01 0.327E+04   0.106E+00 0.707E-01 0.341E+01   0.222E-03 0.333E-03 -.149E-01
 -----------------------------------------------------------------------------------------------
   0.170E-01 0.560E-02 0.535E+01   -.213E-13 -.358E-12 0.455E-11   -.113E-01 0.845E-03 -.460E+01   0.120E-04 -.841E-05 -.748E+00
 
 
 POSITION                                       TOTAL-FORCE (eV/Angst)
 -----------------------------------------------------------------------------------
      1.28340      1.28340      0.00000         0.000856      0.000888      0.010780
      3.85020      1.28340      0.00000        -0.000359     -0.000365      0.009874
      6.41699      1.28340      0.00000        -0.000788      0.000564      0.015320
      1.28340      3.85020      0.00000        -0.001653     -0.000273     -0.001059
      3.85020      3.85020      0.00000         0.001165     -0.000205     -0.008104
      6.41699      3.85020      0.00000        -0.000086     -0.000102      0.003717
      1.28340      6.41699      0.00000         0.000604     -0.001106      0.010356
      3.85020      6.41699      0.00000        -0.000171      0.000043      0.010022
      6.41699      6.41699      0.00000        -0.000943     -0.000532      0.015847
      0.00000      0.00000      1.81500        -0.036627      0.006478      0.089108
      2.56680      0.00000      1.81500         0.013897      0.001664      0.045287
      5.13360      0.00000      1.81500         0.030097      0.004345      0.106853
      0.00000      2.56680      1.81500        -0.037288     -0.045635     -0.007847
      2.56680      2.56680      1.81500        -0.019294     -0.098937     -0.104320
      5.13360      2.56680      1.81500         0.049808     -0.069975     -0.035297
      0.00000      5.13360      1.81500        -0.039483      0.051688     -0.008901
      2.56680      5.13360      1.81500        -0.021742      0.096990     -0.104177
      5.13360      5.13360      1.81500         0.045285      0.075977     -0.034472
      1.28975      1.29021      3.70252         0.004449      0.033566      0.057110
      3.85197      1.29787      3.70839         0.022419     -0.014730      0.047337
      6.42079      1.31262      3.73355        -0.027114     -0.090296     -0.080128
      1.29175      3.85003      3.64159        -0.055218      0.005134      0.443605
      3.83593      3.84940      3.61478         0.081650      0.003546      0.615367
      6.40443      3.85485      3.68585         0.019157     -0.002814      0.233293
      1.28586      6.41206      3.70075         0.002115     -0.036354      0.068621
      3.84707      6.40234      3.70801         0.028312      0.016438      0.048318
      6.41759      6.40105      3.73111        -0.030065      0.079904     -0.079916
      0.01020      0.00861      5.51468        -0.011608     -0.013308      0.028808
      2.57158      7.69627      5.51101         0.001979      0.000510      0.040965
      5.13285      0.00689      5.51822         0.000039     -0.004118      0.021048
      0.01886      2.58861      5.55782        -0.015478     -0.008142     -0.155589
      2.58306      2.57366      5.59929        -0.038861      0.011581     -0.302617
      5.12447      2.58637      5.60244         0.039925      0.005260     -0.284475
      0.00347      5.12458      5.55327         0.003672      0.012809     -0.147122
      2.56947      5.11725      5.60011        -0.030467     -0.009957     -0.312180
      5.11641      5.12834      5.59375         0.021816     -0.010534     -0.255430
 -----------------------------------------------------------------------------------
    total drift:                                0.005742      0.006435      0.000853


--------------------------------------------------------------------------------------------------------



  FREE ENERGIE OF THE ION-ELECTRON SYSTEM (eV)
  ---------------------------------------------------
  free  energy   TOTEN  =      -108.46131102 eV

  energy  without entropy=     -108.45122348  energy(sigma->0) =     -108.45878914
 


--------------------------------------------------------------------------------------------------------


    POTLOK:  cpu time    0.0764: real time    0.0764


--------------------------------------------------------------------------------------------------------


 stress matrix after NEB project (eV)
     -3.62041     -0.01241     -0.03844
     -0.01241     -3.59311     -0.08046
     -0.03844     -0.08046     -3.84861
  FORCES: max atom, RMS     0.620770    0.172845
  FORCE total and by dimension    1.037071    0.615367
  Stress total and by dimension    6.391073    3.848611
     LOOP+:  cpu time  457.5078: real time  458.3175
 vacuum level on the upper side and lower side of the slab         0.003         7.693
    4ORBIT:  cpu time    0.0000: real time    0.0000

 total amount of memory used by VASP MPI-rank0   144874. kBytes
=======================================================================

   base      :      30000. kBytes
   nonlr-proj:      14881. kBytes
   fftplans  :       6175. kBytes
   grid      :      18948. kBytes
   one-center:        559. kBytes
   wavefun   :      74311. kBytes
 
  
  
 General timing and accounting informations for this job:
 ========================================================
  
                  Total CPU time used (sec):      466.435
                            User time (sec):      463.599
                          System time (sec):        2.836
                         Elapsed time (sec):      468.307
  
                   Maximum memory used (kb):      439724.
                   Average memory used (kb):           0.
  
                          Minor page faults:       285409
                          Major page faults:         1911
                 Voluntary context switches:         4951
