  36  36   0   0
  0.3666455E+02  0.7700375E-09  0.7700375E-09  0.2226000E-08  0.5000000E-15
  1.000000000000000E-004
  CAR 
 unknown system                          
      7.97028551    -10.84612504  301     -0.43350218      1.00000000
    -10.846  0.0000E+00  0.0000E+00
    -10.783  0.0000E+00  0.0000E+00
    -10.721  0.0000E+00  0.0000E+00
    -10.658  0.0000E+00  0.0000E+00
    -10.595  0.0000E+00  0.0000E+00
    -10.533  0.0000E+00  0.0000E+00
    -10.470  0.1356E-25  0.8505E-27
    -10.407  0.1755E-23  0.1109E-24
    -10.344  0.1867E-21  0.1182E-22
    -10.282  0.1621E-19  0.1028E-20
    -10.219  0.1148E-17  0.7301E-19
    -10.156  0.6622E-16  0.4227E-17
    -10.093  0.3111E-14  0.1994E-15
    -10.031  0.1189E-12  0.7654E-14
     -9.968  0.3695E-11  0.2394E-12
     -9.905  0.9293E-10  0.6068E-11
     -9.843  0.1890E-08  0.1246E-09
     -9.780  0.3101E-07  0.2070E-08
     -9.717  0.4086E-06  0.2770E-07
     -9.654  0.4304E-05  0.2976E-06
     -9.592  0.3596E-04  0.2553E-05
     -9.529  0.2359E-03  0.1735E-04
     -9.466  0.1193E-02  0.9219E-04
     -9.404  0.4514E-02  0.3753E-03
     -9.341  0.1193E-01  0.1124E-02
     -9.278  0.1778E-01  0.2239E-02
     -9.215 -0.5583E-02  0.1889E-02
     -9.153 -0.9687E-01 -0.4188E-02
     -9.090 -0.2106E+00 -0.1740E-01
     -9.027 -0.9554E-01 -0.2339E-01
     -8.964  0.5669E+00  0.1217E-01
     -8.902  0.1652E+01  0.1158E+00
     -8.839  0.2355E+01  0.2635E+00
     -8.776  0.1980E+01  0.3877E+00
     -8.714  0.1062E+01  0.4543E+00
     -8.651  0.1097E+01  0.5231E+00
     -8.588  0.2721E+01  0.6938E+00
     -8.525  0.4573E+01  0.9806E+00
     -8.463  0.4712E+01  0.1276E+01
     -8.400  0.3010E+01  0.1465E+01
     -8.337  0.1308E+01  0.1547E+01
     -8.275  0.1076E+01  0.1614E+01
     -8.212  0.1776E+01  0.1726E+01
     -8.149  0.1950E+01  0.1848E+01
     -8.086  0.1380E+01  0.1935E+01
     -8.024  0.1375E+01  0.2021E+01
     -7.961  0.2781E+01  0.2195E+01
     -7.898  0.4436E+01  0.2474E+01
     -7.835  0.4468E+01  0.2754E+01
     -7.773  0.2915E+01  0.2937E+01
     -7.710  0.1885E+01  0.3055E+01
     -7.647  0.2769E+01  0.3229E+01
     -7.585  0.4351E+01  0.3501E+01
     -7.522  0.4533E+01  0.3786E+01
     -7.459  0.3138E+01  0.3983E+01
     -7.396  0.1810E+01  0.4096E+01
     -7.334  0.1441E+01  0.4186E+01
     -7.271  0.1276E+01  0.4266E+01
     -7.208  0.1025E+01  0.4331E+01
     -7.146  0.2324E+01  0.4477E+01
     -7.083  0.6395E+01  0.4878E+01
     -7.020  0.1094E+02  0.5564E+01
     -6.957  0.1188E+02  0.6309E+01
     -6.895  0.8678E+01  0.6853E+01
     -6.832  0.5336E+01  0.7188E+01
     -6.769  0.4998E+01  0.7502E+01
     -6.707  0.6161E+01  0.7888E+01
     -6.644  0.5860E+01  0.8256E+01
     -6.581  0.4164E+01  0.8517E+01
     -6.518  0.3232E+01  0.8720E+01
     -6.456  0.3548E+01  0.8942E+01
     -6.393  0.3839E+01  0.9183E+01
     -6.330  0.4051E+01  0.9437E+01
     -6.267  0.5647E+01  0.9791E+01
     -6.205  0.8673E+01  0.1034E+02
     -6.142  0.1083E+02  0.1101E+02
     -6.079  0.1011E+02  0.1165E+02
     -6.017  0.7079E+01  0.1209E+02
     -5.954  0.4359E+01  0.1237E+02
     -5.891  0.4404E+01  0.1264E+02
     -5.828  0.7187E+01  0.1309E+02
     -5.766  0.9985E+01  0.1372E+02
     -5.703  0.1043E+02  0.1437E+02
     -5.640  0.9184E+01  0.1495E+02
     -5.578  0.8477E+01  0.1548E+02
     -5.515  0.9078E+01  0.1605E+02
     -5.452  0.1011E+02  0.1668E+02
     -5.389  0.1083E+02  0.1736E+02
     -5.327  0.1147E+02  0.1808E+02
     -5.264  0.1313E+02  0.1891E+02
     -5.201  0.1713E+02  0.1998E+02
     -5.138  0.2310E+02  0.2143E+02
     -5.076  0.2762E+02  0.2316E+02
     -5.013  0.2748E+02  0.2489E+02
     -4.950  0.2487E+02  0.2645E+02
     -4.888  0.2571E+02  0.2806E+02
     -4.825  0.3177E+02  0.3005E+02
     -4.762  0.3865E+02  0.3247E+02
     -4.699  0.4227E+02  0.3513E+02
     -4.637  0.4353E+02  0.3786E+02
     -4.574  0.4643E+02  0.4077E+02
     -4.511  0.5456E+02  0.4419E+02
     -4.449  0.6817E+02  0.4847E+02
     -4.386  0.8230E+02  0.5363E+02
     -4.323  0.8952E+02  0.5924E+02
     -4.260  0.8710E+02  0.6471E+02
     -4.198  0.7930E+02  0.6968E+02
     -4.135  0.7184E+02  0.7419E+02
     -4.072  0.6657E+02  0.7836E+02
     -4.009  0.6286E+02  0.8230E+02
     -3.947  0.6178E+02  0.8618E+02
     -3.884  0.6560E+02  0.9029E+02
     -3.821  0.7337E+02  0.9489E+02
     -3.759  0.8073E+02  0.9996E+02
     -3.696  0.8629E+02  0.1054E+03
     -3.633  0.9378E+02  0.1113E+03
     -3.570  0.1043E+03  0.1178E+03
     -3.508  0.1107E+03  0.1247E+03
     -3.445  0.1061E+03  0.1314E+03
     -3.382  0.9561E+02  0.1374E+03
     -3.320  0.9409E+02  0.1433E+03
     -3.257  0.1118E+03  0.1503E+03
     -3.194  0.1424E+03  0.1592E+03
     -3.131  0.1648E+03  0.1696E+03
     -3.069  0.1610E+03  0.1797E+03
     -3.006  0.1343E+03  0.1881E+03
     -2.943  0.1077E+03  0.1948E+03
     -2.881  0.1021E+03  0.2013E+03
     -2.818  0.1198E+03  0.2088E+03
     -2.755  0.1462E+03  0.2179E+03
     -2.692  0.1641E+03  0.2282E+03
     -2.630  0.1644E+03  0.2385E+03
     -2.567  0.1529E+03  0.2481E+03
     -2.504  0.1450E+03  0.2572E+03
     -2.441  0.1504E+03  0.2667E+03
     -2.379  0.1621E+03  0.2768E+03
     -2.316  0.1679E+03  0.2873E+03
     -2.253  0.1691E+03  0.2980E+03
     -2.191  0.1781E+03  0.3091E+03
     -2.128  0.1987E+03  0.3216E+03
     -2.065  0.2172E+03  0.3352E+03
     -2.002  0.2167E+03  0.3488E+03
     -1.940  0.1903E+03  0.3607E+03
     -1.877  0.1426E+03  0.3697E+03
     -1.814  0.8770E+02  0.3752E+03
     -1.752  0.4416E+02  0.3779E+03
     -1.689  0.2246E+02  0.3794E+03
     -1.626  0.1817E+02  0.3805E+03
     -1.563  0.1934E+02  0.3817E+03
     -1.501  0.1819E+02  0.3828E+03
     -1.438  0.1425E+02  0.3837E+03
     -1.375  0.1018E+02  0.3844E+03
     -1.312  0.7970E+01  0.3849E+03
     -1.250  0.8498E+01  0.3854E+03
     -1.187  0.1159E+02  0.3861E+03
     -1.124  0.1551E+02  0.3871E+03
     -1.062  0.1770E+02  0.3882E+03
     -0.999  0.1706E+02  0.3893E+03
     -0.936  0.1471E+02  0.3902E+03
     -0.873  0.1274E+02  0.3910E+03
     -0.811  0.1228E+02  0.3918E+03
     -0.748  0.1266E+02  0.3926E+03
     -0.685  0.1236E+02  0.3934E+03
     -0.623  0.1113E+02  0.3941E+03
     -0.560  0.1023E+02  0.3947E+03
     -0.497  0.1037E+02  0.3953E+03
     -0.434  0.1034E+02  0.3960E+03
     -0.372  0.9154E+01  0.3966E+03
     -0.309  0.8309E+01  0.3971E+03
     -0.246  0.1026E+02  0.3977E+03
     -0.183  0.1471E+02  0.3987E+03
     -0.121  0.1815E+02  0.3998E+03
     -0.058  0.1779E+02  0.4009E+03
      0.005  0.1452E+02  0.4018E+03
      0.067  0.1118E+02  0.4025E+03
      0.130  0.9389E+01  0.4031E+03
      0.193  0.9004E+01  0.4037E+03
      0.256  0.9311E+01  0.4043E+03
      0.318  0.9806E+01  0.4049E+03
      0.381  0.1031E+02  0.4055E+03
      0.444  0.1093E+02  0.4062E+03
      0.506  0.1178E+02  0.4069E+03
      0.569  0.1285E+02  0.4077E+03
      0.632  0.1404E+02  0.4086E+03
      0.695  0.1523E+02  0.4096E+03
      0.757  0.1593E+02  0.4106E+03
      0.820  0.1518E+02  0.4115E+03
      0.883  0.1255E+02  0.4123E+03
      0.945  0.8779E+01  0.4129E+03
      1.008  0.5316E+01  0.4132E+03
      1.071  0.3724E+01  0.4134E+03
      1.134  0.5114E+01  0.4138E+03
      1.196  0.8812E+01  0.4143E+03
      1.259  0.1201E+02  0.4151E+03
      1.322  0.1204E+02  0.4158E+03
      1.385  0.9296E+01  0.4164E+03
      1.447  0.7430E+01  0.4169E+03
      1.510  0.9837E+01  0.4175E+03
      1.573  0.1563E+02  0.4185E+03
      1.635  0.2008E+02  0.4197E+03
      1.698  0.1974E+02  0.4210E+03
      1.761  0.1546E+02  0.4219E+03
      1.824  0.1001E+02  0.4226E+03
      1.886  0.5085E+01  0.4229E+03
      1.949  0.1592E+01  0.4230E+03
      2.012  0.7515E+00  0.4230E+03
      2.074  0.3419E+01  0.4232E+03
      2.137  0.9189E+01  0.4238E+03
      2.200  0.1616E+02  0.4248E+03
      2.263  0.2092E+02  0.4261E+03
      2.325  0.1998E+02  0.4274E+03
      2.388  0.1315E+02  0.4282E+03
      2.451  0.4782E+01  0.4285E+03
      2.514  0.4574E+00  0.4286E+03
      2.576  0.2558E+01  0.4287E+03
      2.639  0.9132E+01  0.4293E+03
      2.702  0.1593E+02  0.4303E+03
      2.764  0.1905E+02  0.4315E+03
      2.827  0.1694E+02  0.4325E+03
      2.890  0.1149E+02  0.4333E+03
      2.953  0.6945E+01  0.4337E+03
      3.015  0.6322E+01  0.4341E+03
      3.078  0.8983E+01  0.4347E+03
      3.141  0.1220E+02  0.4354E+03
      3.203  0.1414E+02  0.4363E+03
      3.266  0.1449E+02  0.4372E+03
      3.329  0.1372E+02  0.4381E+03
      3.392  0.1305E+02  0.4389E+03
      3.454  0.1401E+02  0.4398E+03
      3.517  0.1689E+02  0.4408E+03
      3.580  0.2039E+02  0.4421E+03
      3.643  0.2305E+02  0.4436E+03
      3.705  0.2404E+02  0.4451E+03
      3.768  0.2284E+02  0.4465E+03
      3.831  0.1982E+02  0.4477E+03
      3.893  0.1644E+02  0.4488E+03
      3.956  0.1378E+02  0.4496E+03
      4.019  0.1165E+02  0.4504E+03
      4.082  0.9898E+01  0.4510E+03
      4.144  0.9056E+01  0.4516E+03
      4.207  0.9022E+01  0.4521E+03
      4.270  0.9164E+01  0.4527E+03
      4.332  0.1023E+02  0.4533E+03
      4.395  0.1390E+02  0.4542E+03
      4.458  0.1954E+02  0.4554E+03
      4.521  0.2318E+02  0.4569E+03
      4.583  0.2153E+02  0.4582E+03
      4.646  0.1611E+02  0.4593E+03
      4.709  0.1178E+02  0.4600E+03
      4.771  0.1151E+02  0.4607E+03
      4.834  0.1383E+02  0.4616E+03
      4.897  0.1589E+02  0.4626E+03
      4.960  0.1715E+02  0.4637E+03
      5.022  0.1892E+02  0.4648E+03
      5.085  0.2131E+02  0.4662E+03
      5.148  0.2254E+02  0.4676E+03
      5.211  0.2147E+02  0.4689E+03
      5.273  0.1947E+02  0.4702E+03
      5.336  0.1913E+02  0.4714E+03
      5.399  0.2133E+02  0.4727E+03
      5.461  0.2367E+02  0.4742E+03
      5.524  0.2275E+02  0.4756E+03
      5.587  0.1818E+02  0.4767E+03
      5.650  0.1288E+02  0.4776E+03
      5.712  0.9447E+01  0.4781E+03
      5.775  0.7804E+01  0.4786E+03
      5.838  0.6765E+01  0.4791E+03
      5.900  0.5843E+01  0.4794E+03
      5.963  0.4802E+01  0.4797E+03
      6.026  0.3271E+01  0.4799E+03
      6.089  0.1452E+01  0.4800E+03
      6.151  0.1243E+00  0.4800E+03
      6.214 -0.3281E+00  0.4800E+03
      6.277 -0.2293E+00  0.4800E+03
      6.340 -0.4821E-01  0.4800E+03
      6.402  0.2801E-01  0.4800E+03
      6.465  0.2893E-01  0.4800E+03
      6.528  0.1363E-01  0.4800E+03
      6.590  0.4324E-02  0.4800E+03
      6.653  0.1014E-02  0.4800E+03
      6.716  0.1831E-03  0.4800E+03
      6.779  0.2597E-04  0.4800E+03
      6.841  0.2928E-05  0.4800E+03
      6.904  0.2646E-06  0.4800E+03
      6.967  0.1927E-07  0.4800E+03
      7.029  0.1135E-08  0.4800E+03
      7.092  0.5418E-10  0.4800E+03
      7.155  0.2102E-11  0.4800E+03
      7.218  0.6638E-13  0.4800E+03
      7.280  0.1770E-14  0.4800E+03
      7.343  0.0000E+00  0.4800E+03
      7.406  0.0000E+00  0.4800E+03
      7.469  0.0000E+00  0.4800E+03
      7.531  0.0000E+00  0.4800E+03
      7.594  0.0000E+00  0.4800E+03
      7.657  0.0000E+00  0.4800E+03
      7.719  0.0000E+00  0.4800E+03
      7.782  0.0000E+00  0.4800E+03
      7.845  0.0000E+00  0.4800E+03
      7.908  0.0000E+00  0.4800E+03
      7.970  0.0000E+00  0.4800E+03
