   36   36    1    1
  0.3666455E+02  0.7700375E-09  0.7700375E-09  0.2226000E-08  0.5000000E-15
  1.000000000000000E-004
  CAR 
 unknown system                          
    396      8    240
 
  0.1250000E+00  0.1250000E+00  0.0000000E+00  0.1250000E+00
    1       -8.846125   1.000000
    2       -7.299591   1.000000
    3       -7.021746   1.000000
    4       -7.015558   1.000000
    5       -6.037642   1.000000
    6       -6.031496   1.000000
    7       -5.784801   1.000000
    8       -5.777941   1.000000
    9       -5.584364   1.000000
   10       -5.405582   1.000000
   11       -5.271851   1.000000
   12       -5.265201   1.000000
   13       -5.053294   1.000000
   14       -5.051044   1.000000
   15       -4.952449   1.000000
   16       -4.871301   1.000000
   17       -4.653134   1.000000
   18       -4.627022   1.000000
   19       -4.617384   1.000000
   20       -4.597238   1.000000
   21       -4.590133   1.000000
   22       -4.543329   1.000000
   23       -4.473499   1.000000
   24       -4.414670   1.000000
   25       -4.413206   1.000000
   26       -4.351734   1.000000
   27       -4.338124   1.000000
   28       -4.334021   1.000000
   29       -4.298836   1.000000
   30       -4.293697   1.000000
   31       -4.287455   1.000000
   32       -4.276788   1.000000
   33       -4.269844   1.000000
   34       -4.202735   1.000000
   35       -4.196898   1.000000
   36       -4.193661   1.000000
   37       -4.187498   1.000000
   38       -4.178541   1.000000
   39       -4.099012   1.000000
   40       -4.095167   1.000000
   41       -4.046588   1.000000
   42       -4.030924   1.000000
   43       -4.006322   1.000000
   44       -3.999866   1.000000
   45       -3.912343   1.000000
   46       -3.802049   1.000000
   47       -3.798652   1.000000
   48       -3.787660   1.000000
   49       -3.781777   1.000000
   50       -3.749371   1.000000
   51       -3.722264   1.000000
   52       -3.701985   1.000000
   53       -3.695425   1.000000
   54       -3.693250   1.000000
   55       -3.650427   1.000000
   56       -3.583599   1.000000
   57       -3.581821   1.000000
   58       -3.562726   1.000000
   59       -3.523707   1.000000
   60       -3.519900   1.000000
   61       -3.513881   1.000000
   62       -3.490450   1.000000
   63       -3.470210   1.000000
   64       -3.464241   1.000000
   65       -3.460926   1.000000
   66       -3.446917   1.000000
   67       -3.438884   1.000000
   68       -3.433829   1.000000
   69       -3.382528   1.000000
   70       -3.379767   1.000000
   71       -3.374316   1.000000
   72       -3.278169   1.000000
   73       -3.268582   1.000000
   74       -3.257557   1.000000
   75       -3.248717   1.000000
   76       -3.221518   1.000000
   77       -3.208684   1.000000
   78       -3.203471   1.000000
   79       -3.168618   1.000000
   80       -3.163597   1.000000
   81       -3.154863   1.000000
   82       -3.146970   1.000000
   83       -3.141342   1.000000
   84       -3.136449   1.000000
   85       -3.119540   1.000000
   86       -3.116412   1.000000
   87       -3.111409   1.000000
   88       -3.106735   1.000000
   89       -3.103426   1.000000
   90       -3.092827   1.000000
   91       -3.083781   1.000000
   92       -3.074595   1.000000
   93       -3.066610   1.000000
   94       -3.053184   1.000000
   95       -3.036942   1.000000
   96       -3.032927   1.000000
   97       -2.987484   1.000000
   98       -2.983501   1.000000
   99       -2.936705   1.000000
  100       -2.887431   1.000000
  101       -2.884715   1.000000
  102       -2.849956   1.000000
  103       -2.843183   1.000000
  104       -2.739651   1.000000
  105       -2.729676   1.000000
  106       -2.723487   1.000000
  107       -2.720566   1.000000
  108       -2.690756   1.000000
  109       -2.684668   1.000000
  110       -2.672911   1.000000
  111       -2.667888   1.000000
  112       -2.653541   1.000000
  113       -2.630515   1.000000
  114       -2.627311   1.000000
  115       -2.621748   1.000000
  116       -2.617205   1.000000
  117       -2.591702   1.000000
  118       -2.589302   1.000000
  119       -2.586653   1.000000
  120       -2.582476   1.000000
  121       -2.569362   1.000000
  122       -2.564572   1.000000
  123       -2.543305   1.000000
  124       -2.522669   1.000000
  125       -2.517398   1.000000
  126       -2.514097   1.000000
  127       -2.510940   1.000000
  128       -2.497145   1.000000
  129       -2.495508   1.000000
  130       -2.491702   1.000000
  131       -2.487422   1.000000
  132       -2.483200   1.000000
  133       -2.478918   1.000000
  134       -2.476886   1.000000
  135       -2.460109   1.000000
  136       -2.457222   1.000000
  137       -2.415801   1.000000
  138       -2.398910   1.000000
  139       -2.366686   1.000000
  140       -2.340749   1.000000
  141       -2.332724   1.000000
  142       -2.327039   1.000000
  143       -2.308645   1.000000
  144       -2.296352   1.000000
  145       -2.293294   1.000000
  146       -2.292938   1.000000
  147       -2.292471   1.000000
  148       -2.288614   1.000000
  149       -2.285627   1.000000
  150       -2.272499   1.000000
  151       -2.247408   1.000000
  152       -2.245523   1.000000
  153       -2.198402   1.000000
  154       -2.167231   1.000000
  155       -2.165298   1.000000
  156       -2.156464   1.000000
  157       -2.154633   1.000000
  158       -2.145116   1.000000
  159       -2.141527   1.000000
  160       -2.131441   1.000000
  161       -2.124432   1.000000
  162       -2.122471   1.000000
  163       -2.120937   1.000000
  164       -2.119280   1.000000
  165       -2.117520   1.000000
  166       -2.109400   1.000000
  167       -2.106650   1.000000
  168       -2.105076   1.000000
  169       -2.080196   1.000000
  170       -2.078219   1.000000
  171       -2.042753   1.000000
  172       -2.039950   1.000000
  173       -2.038289   1.000000
  174       -2.033248   1.000000
  175       -2.030498   1.000000
  176       -1.993629   1.000000
  177       -1.958912   1.000000
  178       -1.957411   1.000000
  179       -1.954521   1.000000
  180       -1.951098   1.000000
  181       -1.947926   1.000000
  182       -1.942245   1.000000
  183       -1.938394   1.000000
  184       -1.925097   1.000000
  185       -1.904603   1.000000
  186       -1.899457   1.000000
  187       -1.895829   1.000000
  188       -1.894821   1.000000
  189       -1.884430   1.000000
  190       -1.880402   1.000000
  191       -1.873887   1.000000
  192       -1.831812   1.000000
  193       -1.412287   1.000000
  194       -1.408959   1.000000
  195       -1.153292   0.999988
  196       -1.151847   0.999988
  197       -1.073807   0.999889
  198       -0.794915   0.996982
  199       -0.687928   1.030925
  200       -0.460292   0.639740
  201       -0.456233   0.619030
  202       -0.187205  -0.034820
  203       -0.181319  -0.032005
  204        0.673819   0.000000
  205        0.751828   0.000000
  206        0.860137   0.000000
  207        1.242235   0.000000
  208        1.248117   0.000000
  209        1.683641   0.000000
  210        1.685389   0.000000
  211        1.783873   0.000000
  212        1.795571   0.000000
  213        2.999912   0.000000
  214        3.064315   0.000000
  215        3.068275   0.000000
  216        3.200094   0.000000
  217        3.402616   0.000000
  218        3.408454   0.000000
  219        3.523302   0.000000
  220        3.543422   0.000000
  221        3.585337   0.000000
  222        3.590718   0.000000
  223        3.716244   0.000000
  224        3.719259   0.000000
  225        3.967422   0.000000
  226        4.437392   0.000000
  227        4.438751   0.000000
  228        4.741468   0.000000
  229        4.744523   0.000000
  230        4.916982   0.000000
  231        5.094688   0.000000
  232        5.099556   0.000000
  233        5.235634   0.000000
  234        5.238805   0.000000
  235        5.391195   0.000000
  236        5.407592   0.000000
  237        5.435284   0.000000
  238        5.438296   0.000000
  239        5.514408   0.000000
  240        5.689984   0.000000
 
  0.3750000E+00  0.1250000E+00  0.0000000E+00  0.1250000E+00
    1       -8.521602   1.000000
    2       -7.893469   1.000000
    3       -6.999844   1.000000
    4       -6.733283   1.000000
    5       -6.447902   1.000000
    6       -6.212506   1.000000
    7       -5.794927   1.000000
    8       -5.527669   1.000000
    9       -5.403689   1.000000
   10       -5.260934   1.000000
   11       -5.166181   1.000000
   12       -5.095124   1.000000
   13       -5.068191   1.000000
   14       -5.057863   1.000000
   15       -4.815452   1.000000
   16       -4.788022   1.000000
   17       -4.781890   1.000000
   18       -4.725125   1.000000
   19       -4.717617   1.000000
   20       -4.678303   1.000000
   21       -4.565539   1.000000
   22       -4.520861   1.000000
   23       -4.507295   1.000000
   24       -4.476424   1.000000
   25       -4.434885   1.000000
   26       -4.411724   1.000000
   27       -4.391847   1.000000
   28       -4.379382   1.000000
   29       -4.373522   1.000000
   30       -4.344297   1.000000
   31       -4.320538   1.000000
   32       -4.309888   1.000000
   33       -4.229787   1.000000
   34       -4.220041   1.000000
   35       -4.142391   1.000000
   36       -4.131167   1.000000
   37       -4.107534   1.000000
   38       -4.103960   1.000000
   39       -4.042973   1.000000
   40       -4.036958   1.000000
   41       -4.015870   1.000000
   42       -3.992501   1.000000
   43       -3.974641   1.000000
   44       -3.918403   1.000000
   45       -3.912924   1.000000
   46       -3.904234   1.000000
   47       -3.853012   1.000000
   48       -3.812626   1.000000
   49       -3.808267   1.000000
   50       -3.783907   1.000000
   51       -3.778767   1.000000
   52       -3.721761   1.000000
   53       -3.683933   1.000000
   54       -3.660621   1.000000
   55       -3.649029   1.000000
   56       -3.634535   1.000000
   57       -3.619722   1.000000
   58       -3.606528   1.000000
   59       -3.571064   1.000000
   60       -3.561286   1.000000
   61       -3.541029   1.000000
   62       -3.536667   1.000000
   63       -3.522743   1.000000
   64       -3.522004   1.000000
   65       -3.499659   1.000000
   66       -3.493283   1.000000
   67       -3.474054   1.000000
   68       -3.408570   1.000000
   69       -3.368192   1.000000
   70       -3.341695   1.000000
   71       -3.324784   1.000000
   72       -3.322026   1.000000
   73       -3.306810   1.000000
   74       -3.291142   1.000000
   75       -3.245701   1.000000
   76       -3.222321   1.000000
   77       -3.200105   1.000000
   78       -3.197299   1.000000
   79       -3.186357   1.000000
   80       -3.181357   1.000000
   81       -3.174621   1.000000
   82       -3.169106   1.000000
   83       -3.162514   1.000000
   84       -3.152139   1.000000
   85       -3.142615   1.000000
   86       -3.125948   1.000000
   87       -3.116588   1.000000
   88       -3.110561   1.000000
   89       -3.088150   1.000000
   90       -3.082181   1.000000
   91       -3.074425   1.000000
   92       -3.062511   1.000000
   93       -3.047056   1.000000
   94       -3.013795   1.000000
   95       -3.005417   1.000000
   96       -2.976298   1.000000
   97       -2.956096   1.000000
   98       -2.948856   1.000000
   99       -2.891969   1.000000
  100       -2.883388   1.000000
  101       -2.843866   1.000000
  102       -2.840190   1.000000
  103       -2.828896   1.000000
  104       -2.826342   1.000000
  105       -2.818858   1.000000
  106       -2.817330   1.000000
  107       -2.797394   1.000000
  108       -2.790425   1.000000
  109       -2.781922   1.000000
  110       -2.760855   1.000000
  111       -2.746192   1.000000
  112       -2.734078   1.000000
  113       -2.710229   1.000000
  114       -2.705497   1.000000
  115       -2.684116   1.000000
  116       -2.677474   1.000000
  117       -2.674231   1.000000
  118       -2.671001   1.000000
  119       -2.652292   1.000000
  120       -2.639971   1.000000
  121       -2.624952   1.000000
  122       -2.620611   1.000000
  123       -2.596335   1.000000
  124       -2.591357   1.000000
  125       -2.581606   1.000000
  126       -2.525250   1.000000
  127       -2.499670   1.000000
  128       -2.477722   1.000000
  129       -2.473633   1.000000
  130       -2.467694   1.000000
  131       -2.449771   1.000000
  132       -2.443050   1.000000
  133       -2.424367   1.000000
  134       -2.412691   1.000000
  135       -2.408376   1.000000
  136       -2.406013   1.000000
  137       -2.398005   1.000000
  138       -2.390449   1.000000
  139       -2.372652   1.000000
  140       -2.363490   1.000000
  141       -2.358289   1.000000
  142       -2.356696   1.000000
  143       -2.346306   1.000000
  144       -2.342908   1.000000
  145       -2.327500   1.000000
  146       -2.317622   1.000000
  147       -2.298562   1.000000
  148       -2.292473   1.000000
  149       -2.262304   1.000000
  150       -2.257254   1.000000
  151       -2.250726   1.000000
  152       -2.220354   1.000000
  153       -2.202775   1.000000
  154       -2.198225   1.000000
  155       -2.187409   1.000000
  156       -2.183861   1.000000
  157       -2.150214   1.000000
  158       -2.144961   1.000000
  159       -2.125638   1.000000
  160       -2.121138   1.000000
  161       -2.118816   1.000000
  162       -2.110609   1.000000
  163       -2.103509   1.000000
  164       -2.100136   1.000000
  165       -2.094370   1.000000
  166       -2.080918   1.000000
  167       -2.061766   1.000000
  168       -2.060541   1.000000
  169       -2.058691   1.000000
  170       -2.057616   1.000000
  171       -2.047470   1.000000
  172       -2.037957   1.000000
  173       -2.034319   1.000000
  174       -2.028896   1.000000
  175       -2.014058   1.000000
  176       -1.993871   1.000000
  177       -1.974934   1.000000
  178       -1.967620   1.000000
  179       -1.954046   1.000000
  180       -1.950457   1.000000
  181       -1.940920   1.000000
  182       -1.910576   1.000000
  183       -1.901073   1.000000
  184       -1.897328   1.000000
  185       -1.882465   1.000000
  186       -1.858893   1.000000
  187       -1.805623   1.000000
  188       -1.771522   1.000000
  189       -1.739595   1.000000
  190       -1.684102   1.000000
  191       -1.644002   1.000000
  192       -1.577491   1.000000
  193       -1.507799   1.000000
  194       -1.155363   0.999989
  195       -1.064404   0.999859
  196       -0.931069   0.997847
  197       -0.759452   1.003034
  198       -0.331546   0.055817
  199       -0.153145  -0.018821
  200       -0.143374  -0.014708
  201       -0.064667   0.003694
  202        0.037385   0.003090
  203        0.180241   0.000215
  204        0.378815   0.000001
  205        0.611216   0.000000
  206        0.810359   0.000000
  207        1.186920   0.000000
  208        1.330254   0.000000
  209        1.601991   0.000000
  210        1.614331   0.000000
  211        2.101663   0.000000
  212        2.195661   0.000000
  213        2.246656   0.000000
  214        2.290620   0.000000
  215        2.302267   0.000000
  216        2.628088   0.000000
  217        2.746291   0.000000
  218        2.828282   0.000000
  219        3.276900   0.000000
  220        3.285613   0.000000
  221        3.689756   0.000000
  222        3.722349   0.000000
  223        3.778206   0.000000
  224        3.840520   0.000000
  225        3.929831   0.000000
  226        4.009553   0.000000
  227        4.281717   0.000000
  228        4.469925   0.000000
  229        4.486448   0.000000
  230        4.561317   0.000000
  231        4.573941   0.000000
  232        4.877236   0.000000
  233        4.909205   0.000000
  234        5.031177   0.000000
  235        5.096140   0.000000
  236        5.245317   0.000000
  237        5.380157   0.000000
  238        5.500313   0.000000
  239        5.742114   0.000000
  240        5.917705   0.000000
 
 -0.3750000E+00  0.1250000E+00  0.0000000E+00  0.1250000E+00
    1       -8.521601   1.000000
    2       -7.893471   1.000000
    3       -6.999830   1.000000
    4       -6.733327   1.000000
    5       -6.447893   1.000000
    6       -6.212481   1.000000
    7       -5.794913   1.000000
    8       -5.527671   1.000000
    9       -5.403721   1.000000
   10       -5.260957   1.000000
   11       -5.166158   1.000000
   12       -5.095044   1.000000
   13       -5.068523   1.000000
   14       -5.057537   1.000000
   15       -4.815433   1.000000
   16       -4.787903   1.000000
   17       -4.782026   1.000000
   18       -4.724948   1.000000
   19       -4.717344   1.000000
   20       -4.678871   1.000000
   21       -4.565529   1.000000
   22       -4.520788   1.000000
   23       -4.507259   1.000000
   24       -4.476414   1.000000
   25       -4.434862   1.000000
   26       -4.411959   1.000000
   27       -4.391789   1.000000
   28       -4.379472   1.000000
   29       -4.373200   1.000000
   30       -4.344580   1.000000
   31       -4.320718   1.000000
   32       -4.309565   1.000000
   33       -4.230254   1.000000
   34       -4.219536   1.000000
   35       -4.142459   1.000000
   36       -4.131345   1.000000
   37       -4.107463   1.000000
   38       -4.103759   1.000000
   39       -4.043392   1.000000
   40       -4.037257   1.000000
   41       -4.015706   1.000000
   42       -3.991853   1.000000
   43       -3.974848   1.000000
   44       -3.918358   1.000000
   45       -3.912785   1.000000
   46       -3.904189   1.000000
   47       -3.853158   1.000000
   48       -3.812833   1.000000
   49       -3.808398   1.000000
   50       -3.783597   1.000000
   51       -3.778614   1.000000
   52       -3.722060   1.000000
   53       -3.684419   1.000000
   54       -3.660461   1.000000
   55       -3.648937   1.000000
   56       -3.634598   1.000000
   57       -3.619483   1.000000
   58       -3.606358   1.000000
   59       -3.571291   1.000000
   60       -3.561391   1.000000
   61       -3.540851   1.000000
   62       -3.536076   1.000000
   63       -3.523089   1.000000
   64       -3.522224   1.000000
   65       -3.499587   1.000000
   66       -3.493444   1.000000
   67       -3.473830   1.000000
   68       -3.408307   1.000000
   69       -3.368115   1.000000
   70       -3.341503   1.000000
   71       -3.324871   1.000000
   72       -3.322096   1.000000
   73       -3.306862   1.000000
   74       -3.290978   1.000000
   75       -3.246044   1.000000
   76       -3.222213   1.000000
   77       -3.200589   1.000000
   78       -3.197164   1.000000
   79       -3.184972   1.000000
   80       -3.181680   1.000000
   81       -3.175583   1.000000
   82       -3.169767   1.000000
   83       -3.163856   1.000000
   84       -3.151057   1.000000
   85       -3.141961   1.000000
   86       -3.125483   1.000000
   87       -3.116175   1.000000
   88       -3.110918   1.000000
   89       -3.088824   1.000000
   90       -3.081772   1.000000
   91       -3.073869   1.000000
   92       -3.062631   1.000000
   93       -3.047364   1.000000
   94       -3.014061   1.000000
   95       -3.005556   1.000000
   96       -2.976171   1.000000
   97       -2.956141   1.000000
   98       -2.948509   1.000000
   99       -2.892144   1.000000
  100       -2.883554   1.000000
  101       -2.844301   1.000000
  102       -2.840013   1.000000
  103       -2.827776   1.000000
  104       -2.826383   1.000000
  105       -2.818676   1.000000
  106       -2.818232   1.000000
  107       -2.797876   1.000000
  108       -2.788846   1.000000
  109       -2.781706   1.000000
  110       -2.761318   1.000000
  111       -2.746973   1.000000
  112       -2.733886   1.000000
  113       -2.710807   1.000000
  114       -2.705662   1.000000
  115       -2.683951   1.000000
  116       -2.677744   1.000000
  117       -2.674575   1.000000
  118       -2.670046   1.000000
  119       -2.652838   1.000000
  120       -2.639905   1.000000
  121       -2.625155   1.000000
  122       -2.619826   1.000000
  123       -2.596633   1.000000
  124       -2.590957   1.000000
  125       -2.581683   1.000000
  126       -2.525353   1.000000
  127       -2.499800   1.000000
  128       -2.477846   1.000000
  129       -2.473590   1.000000
  130       -2.467831   1.000000
  131       -2.449391   1.000000
  132       -2.441948   1.000000
  133       -2.425279   1.000000
  134       -2.411875   1.000000
  135       -2.407901   1.000000
  136       -2.405587   1.000000
  137       -2.398114   1.000000
  138       -2.391343   1.000000
  139       -2.373914   1.000000
  140       -2.363814   1.000000
  141       -2.357699   1.000000
  142       -2.355859   1.000000
  143       -2.347067   1.000000
  144       -2.343368   1.000000
  145       -2.327599   1.000000
  146       -2.317186   1.000000
  147       -2.298534   1.000000
  148       -2.292778   1.000000
  149       -2.261841   1.000000
  150       -2.256809   1.000000
  151       -2.250821   1.000000
  152       -2.220696   1.000000
  153       -2.203157   1.000000
  154       -2.198173   1.000000
  155       -2.187103   1.000000
  156       -2.183817   1.000000
  157       -2.150537   1.000000
  158       -2.144855   1.000000
  159       -2.125450   1.000000
  160       -2.121059   1.000000
  161       -2.119269   1.000000
  162       -2.110652   1.000000
  163       -2.103668   1.000000
  164       -2.099993   1.000000
  165       -2.094035   1.000000
  166       -2.081406   1.000000
  167       -2.061453   1.000000
  168       -2.060702   1.000000
  169       -2.058429   1.000000
  170       -2.057561   1.000000
  171       -2.047513   1.000000
  172       -2.037894   1.000000
  173       -2.034180   1.000000
  174       -2.029207   1.000000
  175       -2.013906   1.000000
  176       -1.993796   1.000000
  177       -1.975043   1.000000
  178       -1.967878   1.000000
  179       -1.953807   1.000000
  180       -1.950409   1.000000
  181       -1.941210   1.000000
  182       -1.910710   1.000000
  183       -1.900766   1.000000
  184       -1.897631   1.000000
  185       -1.882696   1.000000
  186       -1.857789   1.000000
  187       -1.806148   1.000000
  188       -1.771484   1.000000
  189       -1.739490   1.000000
  190       -1.683959   1.000000
  191       -1.644051   1.000000
  192       -1.577472   1.000000
  193       -1.507837   1.000000
  194       -1.155357   0.999989
  195       -1.064377   0.999859
  196       -0.931062   0.997847
  197       -0.759505   1.003021
  198       -0.331515   0.055731
  199       -0.152621  -0.018592
  200       -0.143624  -0.014809
  201       -0.064987   0.003669
  202        0.037381   0.003090
  203        0.180224   0.000216
  204        0.378773   0.000001
  205        0.611252   0.000000
  206        0.810361   0.000000
  207        1.186499   0.000000
  208        1.330353   0.000000
  209        1.602474   0.000000
  210        1.614329   0.000000
  211        2.101665   0.000000
  212        2.195911   0.000000
  213        2.246834   0.000000
  214        2.290661   0.000000
  215        2.301826   0.000000
  216        2.629884   0.000000
  217        2.743776   0.000000
  218        2.828396   0.000000
  219        3.276330   0.000000
  220        3.286300   0.000000
  221        3.689896   0.000000
  222        3.722432   0.000000
  223        3.778095   0.000000
  224        3.840524   0.000000
  225        3.930562   0.000000
  226        4.009341   0.000000
  227        4.281720   0.000000
  228        4.469982   0.000000
  229        4.486431   0.000000
  230        4.560829   0.000000
  231        4.573867   0.000000
  232        4.876813   0.000000
  233        4.909261   0.000000
  234        5.030974   0.000000
  235        5.096967   0.000000
  236        5.245356   0.000000
  237        5.380463   0.000000
  238        5.501158   0.000000
  239        5.743131   0.000000
  240        5.916884   0.000000
 
 -0.1250000E+00  0.1250000E+00  0.0000000E+00  0.1250000E+00
    1       -8.846125   1.000000
    2       -7.299587   1.000000
    3       -7.021109   1.000000
    4       -7.016216   1.000000
    5       -6.037130   1.000000
    6       -6.031966   1.000000
    7       -5.785749   1.000000
    8       -5.777049   1.000000
    9       -5.584299   1.000000
   10       -5.405597   1.000000
   11       -5.272489   1.000000
   12       -5.264515   1.000000
   13       -5.052969   1.000000
   14       -5.051416   1.000000
   15       -4.952424   1.000000
   16       -4.871295   1.000000
   17       -4.653162   1.000000
   18       -4.627021   1.000000
   19       -4.617308   1.000000
   20       -4.597160   1.000000
   21       -4.590168   1.000000
   22       -4.543469   1.000000
   23       -4.473523   1.000000
   24       -4.414890   1.000000
   25       -4.413169   1.000000
   26       -4.351665   1.000000
   27       -4.337979   1.000000
   28       -4.334323   1.000000
   29       -4.298212   1.000000
   30       -4.292976   1.000000
   31       -4.287418   1.000000
   32       -4.276937   1.000000
   33       -4.270547   1.000000
   34       -4.203420   1.000000
   35       -4.197113   1.000000
   36       -4.193348   1.000000
   37       -4.187165   1.000000
   38       -4.178635   1.000000
   39       -4.099031   1.000000
   40       -4.095356   1.000000
   41       -4.046263   1.000000
   42       -4.030957   1.000000
   43       -4.006317   1.000000
   44       -3.999959   1.000000
   45       -3.912247   1.000000
   46       -3.801611   1.000000
   47       -3.799065   1.000000
   48       -3.788059   1.000000
   49       -3.781322   1.000000
   50       -3.749232   1.000000
   51       -3.721999   1.000000
   52       -3.702731   1.000000
   53       -3.695432   1.000000
   54       -3.693252   1.000000
   55       -3.650435   1.000000
   56       -3.583871   1.000000
   57       -3.581287   1.000000
   58       -3.562634   1.000000
   59       -3.524129   1.000000
   60       -3.519425   1.000000
   61       -3.514654   1.000000
   62       -3.489913   1.000000
   63       -3.470409   1.000000
   64       -3.464173   1.000000
   65       -3.461245   1.000000
   66       -3.446726   1.000000
   67       -3.438686   1.000000
   68       -3.433572   1.000000
   69       -3.382461   1.000000
   70       -3.379789   1.000000
   71       -3.374252   1.000000
   72       -3.278037   1.000000
   73       -3.268573   1.000000
   74       -3.256471   1.000000
   75       -3.249942   1.000000
   76       -3.221671   1.000000
   77       -3.209085   1.000000
   78       -3.203100   1.000000
   79       -3.168835   1.000000
   80       -3.162386   1.000000
   81       -3.156327   1.000000
   82       -3.145657   1.000000
   83       -3.142283   1.000000
   84       -3.136062   1.000000
   85       -3.119867   1.000000
   86       -3.116027   1.000000
   87       -3.110558   1.000000
   88       -3.107081   1.000000
   89       -3.104358   1.000000
   90       -3.092515   1.000000
   91       -3.083852   1.000000
   92       -3.075114   1.000000
   93       -3.066026   1.000000
   94       -3.052684   1.000000
   95       -3.036905   1.000000
   96       -3.033418   1.000000
   97       -2.987498   1.000000
   98       -2.983884   1.000000
   99       -2.937132   1.000000
  100       -2.887530   1.000000
  101       -2.884440   1.000000
  102       -2.850476   1.000000
  103       -2.842388   1.000000
  104       -2.740021   1.000000
  105       -2.729949   1.000000
  106       -2.722175   1.000000
  107       -2.721120   1.000000
  108       -2.690716   1.000000
  109       -2.684191   1.000000
  110       -2.672844   1.000000
  111       -2.666946   1.000000
  112       -2.653928   1.000000
  113       -2.630526   1.000000
  114       -2.627685   1.000000
  115       -2.622134   1.000000
  116       -2.617348   1.000000
  117       -2.591890   1.000000
  118       -2.589085   1.000000
  119       -2.585953   1.000000
  120       -2.582782   1.000000
  121       -2.570231   1.000000
  122       -2.564220   1.000000
  123       -2.543444   1.000000
  124       -2.523894   1.000000
  125       -2.517177   1.000000
  126       -2.513428   1.000000
  127       -2.510678   1.000000
  128       -2.497118   1.000000
  129       -2.495034   1.000000
  130       -2.492068   1.000000
  131       -2.487118   1.000000
  132       -2.483027   1.000000
  133       -2.478635   1.000000
  134       -2.476359   1.000000
  135       -2.460685   1.000000
  136       -2.457964   1.000000
  137       -2.415693   1.000000
  138       -2.398996   1.000000
  139       -2.367029   1.000000
  140       -2.341121   1.000000
  141       -2.332737   1.000000
  142       -2.326652   1.000000
  143       -2.307613   1.000000
  144       -2.297607   1.000000
  145       -2.293616   1.000000
  146       -2.292564   1.000000
  147       -2.292396   1.000000
  148       -2.288730   1.000000
  149       -2.286002   1.000000
  150       -2.273098   1.000000
  151       -2.246846   1.000000
  152       -2.245255   1.000000
  153       -2.198269   1.000000
  154       -2.167116   1.000000
  155       -2.165422   1.000000
  156       -2.156698   1.000000
  157       -2.154196   1.000000
  158       -2.145200   1.000000
  159       -2.141033   1.000000
  160       -2.131658   1.000000
  161       -2.124017   1.000000
  162       -2.122265   1.000000
  163       -2.120576   1.000000
  164       -2.119404   1.000000
  165       -2.117874   1.000000
  166       -2.109371   1.000000
  167       -2.106650   1.000000
  168       -2.105497   1.000000
  169       -2.080398   1.000000
  170       -2.078038   1.000000
  171       -2.043076   1.000000
  172       -2.039669   1.000000
  173       -2.039101   1.000000
  174       -2.033255   1.000000
  175       -2.029875   1.000000
  176       -1.993549   1.000000
  177       -1.959240   1.000000
  178       -1.957283   1.000000
  179       -1.953826   1.000000
  180       -1.951398   1.000000
  181       -1.947950   1.000000
  182       -1.942253   1.000000
  183       -1.938282   1.000000
  184       -1.924692   1.000000
  185       -1.904656   1.000000
  186       -1.899461   1.000000
  187       -1.895865   1.000000
  188       -1.895074   1.000000
  189       -1.883780   1.000000
  190       -1.879656   1.000000
  191       -1.874928   1.000000
  192       -1.832385   1.000000
  193       -1.412317   1.000000
  194       -1.408778   1.000000
  195       -1.153223   0.999988
  196       -1.151842   0.999988
  197       -1.073872   0.999889
  198       -0.794849   0.996988
  199       -0.688017   1.030882
  200       -0.460494   0.640766
  201       -0.456156   0.618636
  202       -0.187175  -0.034805
  203       -0.181280  -0.031986
  204        0.673754   0.000000
  205        0.751930   0.000000
  206        0.860003   0.000000
  207        1.242394   0.000000
  208        1.247959   0.000000
  209        1.682938   0.000000
  210        1.685768   0.000000
  211        1.782982   0.000000
  212        1.797035   0.000000
  213        2.999415   0.000000
  214        3.063998   0.000000
  215        3.069034   0.000000
  216        3.199883   0.000000
  217        3.401520   0.000000
  218        3.409540   0.000000
  219        3.523296   0.000000
  220        3.543732   0.000000
  221        3.585960   0.000000
  222        3.589843   0.000000
  223        3.715561   0.000000
  224        3.719860   0.000000
  225        3.967424   0.000000
  226        4.437538   0.000000
  227        4.438897   0.000000
  228        4.741398   0.000000
  229        4.744582   0.000000
  230        4.917017   0.000000
  231        5.094050   0.000000
  232        5.100656   0.000000
  233        5.235986   0.000000
  234        5.241126   0.000000
  235        5.391497   0.000000
  236        5.433988   0.000000
  237        5.437870   0.000000
  238        5.470630   0.000000
  239        5.558310   0.000000
  240        5.691279   0.000000
 
  0.1250000E+00  0.3750000E+00  0.0000000E+00  0.1250000E+00
    1       -8.521720   1.000000
    2       -7.893593   1.000000
    3       -6.998700   1.000000
    4       -6.734628   1.000000
    5       -6.445797   1.000000
    6       -6.213781   1.000000
    7       -5.795489   1.000000
    8       -5.528113   1.000000
    9       -5.404148   1.000000
   10       -5.261131   1.000000
   11       -5.166308   1.000000
   12       -5.095405   1.000000
   13       -5.066238   1.000000
   14       -5.058841   1.000000
   15       -4.816380   1.000000
   16       -4.787733   1.000000
   17       -4.781436   1.000000
   18       -4.726145   1.000000
   19       -4.718572   1.000000
   20       -4.677188   1.000000
   21       -4.568353   1.000000
   22       -4.516376   1.000000
   23       -4.506960   1.000000
   24       -4.470973   1.000000
   25       -4.440480   1.000000
   26       -4.403537   1.000000
   27       -4.392702   1.000000
   28       -4.384682   1.000000
   29       -4.370719   1.000000
   30       -4.340739   1.000000
   31       -4.322295   1.000000
   32       -4.317111   1.000000
   33       -4.227435   1.000000
   34       -4.220578   1.000000
   35       -4.144112   1.000000
   36       -4.133442   1.000000
   37       -4.109196   1.000000
   38       -4.101736   1.000000
   39       -4.039369   1.000000
   40       -4.037074   1.000000
   41       -4.017261   1.000000
   42       -3.991938   1.000000
   43       -3.982315   1.000000
   44       -3.917232   1.000000
   45       -3.911459   1.000000
   46       -3.902209   1.000000
   47       -3.849045   1.000000
   48       -3.810021   1.000000
   49       -3.807416   1.000000
   50       -3.788295   1.000000
   51       -3.778815   1.000000
   52       -3.723847   1.000000
   53       -3.677955   1.000000
   54       -3.665653   1.000000
   55       -3.654217   1.000000
   56       -3.630182   1.000000
   57       -3.623169   1.000000
   58       -3.609292   1.000000
   59       -3.562909   1.000000
   60       -3.558824   1.000000
   61       -3.540635   1.000000
   62       -3.535722   1.000000
   63       -3.522778   1.000000
   64       -3.515522   1.000000
   65       -3.504494   1.000000
   66       -3.497203   1.000000
   67       -3.481335   1.000000
   68       -3.407559   1.000000
   69       -3.368324   1.000000
   70       -3.337715   1.000000
   71       -3.329201   1.000000
   72       -3.323238   1.000000
   73       -3.304622   1.000000
   74       -3.293711   1.000000
   75       -3.244477   1.000000
   76       -3.224173   1.000000
   77       -3.198164   1.000000
   78       -3.196027   1.000000
   79       -3.184050   1.000000
   80       -3.179570   1.000000
   81       -3.173786   1.000000
   82       -3.170335   1.000000
   83       -3.161168   1.000000
   84       -3.157819   1.000000
   85       -3.140873   1.000000
   86       -3.129261   1.000000
   87       -3.114822   1.000000
   88       -3.112148   1.000000
   89       -3.087200   1.000000
   90       -3.083259   1.000000
   91       -3.076599   1.000000
   92       -3.055032   1.000000
   93       -3.047958   1.000000
   94       -3.014446   1.000000
   95       -3.007480   1.000000
   96       -2.979577   1.000000
   97       -2.954391   1.000000
   98       -2.951582   1.000000
   99       -2.891352   1.000000
  100       -2.878450   1.000000
  101       -2.843724   1.000000
  102       -2.842638   1.000000
  103       -2.832542   1.000000
  104       -2.825854   1.000000
  105       -2.818105   1.000000
  106       -2.814229   1.000000
  107       -2.796201   1.000000
  108       -2.790187   1.000000
  109       -2.777872   1.000000
  110       -2.761643   1.000000
  111       -2.752939   1.000000
  112       -2.738946   1.000000
  113       -2.707073   1.000000
  114       -2.691085   1.000000
  115       -2.688150   1.000000
  116       -2.682154   1.000000
  117       -2.678773   1.000000
  118       -2.671213   1.000000
  119       -2.647117   1.000000
  120       -2.639647   1.000000
  121       -2.625608   1.000000
  122       -2.606884   1.000000
  123       -2.599987   1.000000
  124       -2.592080   1.000000
  125       -2.584587   1.000000
  126       -2.524705   1.000000
  127       -2.495282   1.000000
  128       -2.479704   1.000000
  129       -2.473028   1.000000
  130       -2.467803   1.000000
  131       -2.452589   1.000000
  132       -2.439809   1.000000
  133       -2.424551   1.000000
  134       -2.414585   1.000000
  135       -2.404985   1.000000
  136       -2.402191   1.000000
  137       -2.398503   1.000000
  138       -2.391833   1.000000
  139       -2.369574   1.000000
  140       -2.364940   1.000000
  141       -2.362515   1.000000
  142       -2.358163   1.000000
  143       -2.345005   1.000000
  144       -2.342881   1.000000
  145       -2.322759   1.000000
  146       -2.318580   1.000000
  147       -2.299050   1.000000
  148       -2.292174   1.000000
  149       -2.264126   1.000000
  150       -2.258482   1.000000
  151       -2.251788   1.000000
  152       -2.219830   1.000000
  153       -2.202131   1.000000
  154       -2.197818   1.000000
  155       -2.186654   1.000000
  156       -2.183692   1.000000
  157       -2.149189   1.000000
  158       -2.144489   1.000000
  159       -2.122320   1.000000
  160       -2.120807   1.000000
  161       -2.119038   1.000000
  162       -2.110270   1.000000
  163       -2.104933   1.000000
  164       -2.101001   1.000000
  165       -2.096304   1.000000
  166       -2.081721   1.000000
  167       -2.063653   1.000000
  168       -2.061290   1.000000
  169       -2.058800   1.000000
  170       -2.058117   1.000000
  171       -2.048827   1.000000
  172       -2.035694   1.000000
  173       -2.033520   1.000000
  174       -2.029219   1.000000
  175       -2.014418   1.000000
  176       -1.994411   1.000000
  177       -1.975658   1.000000
  178       -1.965974   1.000000
  179       -1.955060   1.000000
  180       -1.951356   1.000000
  181       -1.940884   1.000000
  182       -1.910344   1.000000
  183       -1.900013   1.000000
  184       -1.897342   1.000000
  185       -1.882069   1.000000
  186       -1.857559   1.000000
  187       -1.807622   1.000000
  188       -1.771883   1.000000
  189       -1.741451   1.000000
  190       -1.684250   1.000000
  191       -1.644453   1.000000
  192       -1.578121   1.000000
  193       -1.508758   1.000000
  194       -1.156321   0.999989
  195       -1.065863   0.999864
  196       -0.931618   0.997865
  197       -0.759846   1.002938
  198       -0.332395   0.058154
  199       -0.153172  -0.018833
  200       -0.141850  -0.014099
  201       -0.065927   0.003592
  202        0.035629   0.003156
  203        0.177782   0.000229
  204        0.380599   0.000000
  205        0.611265   0.000000
  206        0.809506   0.000000
  207        1.186398   0.000000
  208        1.333405   0.000000
  209        1.599004   0.000000
  210        1.616498   0.000000
  211        2.099595   0.000000
  212        2.195418   0.000000
  213        2.260832   0.000000
  214        2.283901   0.000000
  215        2.297499   0.000000
  216        2.630936   0.000000
  217        2.743394   0.000000
  218        2.828458   0.000000
  219        3.277433   0.000000
  220        3.286346   0.000000
  221        3.688802   0.000000
  222        3.720592   0.000000
  223        3.781149   0.000000
  224        3.840574   0.000000
  225        3.931149   0.000000
  226        4.008165   0.000000
  227        4.281608   0.000000
  228        4.469076   0.000000
  229        4.495856   0.000000
  230        4.552836   0.000000
  231        4.576038   0.000000
  232        4.878006   0.000000
  233        4.908995   0.000000
  234        5.030551   0.000000
  235        5.097105   0.000000
  236        5.245198   0.000000
  237        5.379734   0.000000
  238        5.516006   0.000000
  239        5.741913   0.000000
  240        5.970286   0.000000
 
  0.3750000E+00  0.3750000E+00  0.0000000E+00  0.1250000E+00
    1       -8.201669   1.000000
    2       -7.588223   1.000000
    3       -7.581320   1.000000
    4       -6.997462   1.000000
    5       -6.703649   1.000000
    6       -6.168645   1.000000
    7       -6.159989   1.000000
    8       -5.659830   1.000000
    9       -5.073836   1.000000
   10       -5.066835   1.000000
   11       -4.932167   1.000000
   12       -4.890223   1.000000
   13       -4.881800   1.000000
   14       -4.838839   1.000000
   15       -4.809898   1.000000
   16       -4.806662   1.000000
   17       -4.779467   1.000000
   18       -4.629535   1.000000
   19       -4.614206   1.000000
   20       -4.609745   1.000000
   21       -4.592652   1.000000
   22       -4.588113   1.000000
   23       -4.467949   1.000000
   24       -4.464868   1.000000
   25       -4.434784   1.000000
   26       -4.428148   1.000000
   27       -4.398017   1.000000
   28       -4.391766   1.000000
   29       -4.379658   1.000000
   30       -4.377295   1.000000
   31       -4.309254   1.000000
   32       -4.288969   1.000000
   33       -4.284133   1.000000
   34       -4.279340   1.000000
   35       -4.233921   1.000000
   36       -4.229300   1.000000
   37       -4.209268   1.000000
   38       -4.153959   1.000000
   39       -4.151147   1.000000
   40       -4.142571   1.000000
   41       -4.095164   1.000000
   42       -3.974573   1.000000
   43       -3.935797   1.000000
   44       -3.898357   1.000000
   45       -3.895267   1.000000
   46       -3.833002   1.000000
   47       -3.822660   1.000000
   48       -3.808135   1.000000
   49       -3.802180   1.000000
   50       -3.794891   1.000000
   51       -3.780175   1.000000
   52       -3.774853   1.000000
   53       -3.740443   1.000000
   54       -3.731871   1.000000
   55       -3.698018   1.000000
   56       -3.614270   1.000000
   57       -3.605492   1.000000
   58       -3.597864   1.000000
   59       -3.589875   1.000000
   60       -3.552564   1.000000
   61       -3.545420   1.000000
   62       -3.511437   1.000000
   63       -3.509596   1.000000
   64       -3.467321   1.000000
   65       -3.459106   1.000000
   66       -3.442380   1.000000
   67       -3.436245   1.000000
   68       -3.422029   1.000000
   69       -3.413375   1.000000
   70       -3.364811   1.000000
   71       -3.355998   1.000000
   72       -3.335670   1.000000
   73       -3.332291   1.000000
   74       -3.321811   1.000000
   75       -3.311483   1.000000
   76       -3.277465   1.000000
   77       -3.242790   1.000000
   78       -3.236257   1.000000
   79       -3.231983   1.000000
   80       -3.227565   1.000000
   81       -3.224850   1.000000
   82       -3.217055   1.000000
   83       -3.159598   1.000000
   84       -3.148600   1.000000
   85       -3.144191   1.000000
   86       -3.126392   1.000000
   87       -3.107641   1.000000
   88       -3.105330   1.000000
   89       -3.075520   1.000000
   90       -3.070653   1.000000
   91       -3.047533   1.000000
   92       -3.042514   1.000000
   93       -3.038670   1.000000
   94       -3.002278   1.000000
   95       -2.999785   1.000000
   96       -2.951487   1.000000
   97       -2.935908   1.000000
   98       -2.933910   1.000000
   99       -2.915885   1.000000
  100       -2.901141   1.000000
  101       -2.895832   1.000000
  102       -2.861252   1.000000
  103       -2.839580   1.000000
  104       -2.836415   1.000000
  105       -2.833531   1.000000
  106       -2.828714   1.000000
  107       -2.817739   1.000000
  108       -2.816055   1.000000
  109       -2.809983   1.000000
  110       -2.799538   1.000000
  111       -2.749703   1.000000
  112       -2.745117   1.000000
  113       -2.742770   1.000000
  114       -2.735337   1.000000
  115       -2.718010   1.000000
  116       -2.709630   1.000000
  117       -2.693634   1.000000
  118       -2.691277   1.000000
  119       -2.686745   1.000000
  120       -2.684596   1.000000
  121       -2.678150   1.000000
  122       -2.674499   1.000000
  123       -2.666791   1.000000
  124       -2.655193   1.000000
  125       -2.653365   1.000000
  126       -2.651829   1.000000
  127       -2.619281   1.000000
  128       -2.597025   1.000000
  129       -2.593156   1.000000
  130       -2.570238   1.000000
  131       -2.512651   1.000000
  132       -2.508669   1.000000
  133       -2.460907   1.000000
  134       -2.457526   1.000000
  135       -2.412719   1.000000
  136       -2.409944   1.000000
  137       -2.409125   1.000000
  138       -2.376191   1.000000
  139       -2.355658   1.000000
  140       -2.351566   1.000000
  141       -2.349254   1.000000
  142       -2.346669   1.000000
  143       -2.338673   1.000000
  144       -2.333730   1.000000
  145       -2.328221   1.000000
  146       -2.311461   1.000000
  147       -2.310091   1.000000
  148       -2.270539   1.000000
  149       -2.266964   1.000000
  150       -2.250463   1.000000
  151       -2.220953   1.000000
  152       -2.186203   1.000000
  153       -2.182471   1.000000
  154       -2.170623   1.000000
  155       -2.167309   1.000000
  156       -2.164049   1.000000
  157       -2.160829   1.000000
  158       -2.157716   1.000000
  159       -2.138894   1.000000
  160       -2.137921   1.000000
  161       -2.135418   1.000000
  162       -2.134188   1.000000
  163       -2.125674   1.000000
  164       -2.124294   1.000000
  165       -2.121222   1.000000
  166       -2.119515   1.000000
  167       -2.047028   1.000000
  168       -2.041360   1.000000
  169       -2.029571   1.000000
  170       -2.013208   1.000000
  171       -2.012534   1.000000
  172       -2.006857   1.000000
  173       -1.997269   1.000000
  174       -1.985089   1.000000
  175       -1.984673   1.000000
  176       -1.969169   1.000000
  177       -1.968659   1.000000
  178       -1.946791   1.000000
  179       -1.944153   1.000000
  180       -1.941596   1.000000
  181       -1.937961   1.000000
  182       -1.928581   1.000000
  183       -1.927317   1.000000
  184       -1.916775   1.000000
  185       -1.906769   1.000000
  186       -1.861498   1.000000
  187       -1.682463   1.000000
  188       -1.591095   1.000000
  189       -1.555504   1.000000
  190       -1.311246   1.000000
  191       -1.309746   1.000000
  192       -0.977106   0.999017
  193       -0.974704   0.998971
  194       -0.829872   0.995113
  195       -0.646404   1.048327
  196       -0.645579   1.048560
  197       -0.499989   0.823170
  198       -0.495003   0.802549
  199        0.069859   0.001971
  200        0.276820   0.000015
  201        0.281378   0.000013
  202        0.464987   0.000000
  203        0.466378   0.000000
  204        0.558575   0.000000
  205        0.562478   0.000000
  206        0.739737   0.000000
  207        0.749324   0.000000
  208        0.968238   0.000000
  209        0.971681   0.000000
  210        1.391130   0.000000
  211        1.539028   0.000000
  212        1.550348   0.000000
  213        1.609576   0.000000
  214        1.826831   0.000000
  215        2.353151   0.000000
  216        2.679339   0.000000
  217        2.686112   0.000000
  218        2.794314   0.000000
  219        2.802041   0.000000
  220        3.136560   0.000000
  221        3.138840   0.000000
  222        3.453387   0.000000
  223        3.501086   0.000000
  224        3.579025   0.000000
  225        3.580319   0.000000
  226        4.156630   0.000000
  227        4.178636   0.000000
  228        4.186098   0.000000
  229        4.379648   0.000000
  230        4.596272   0.000000
  231        4.782522   0.000000
  232        4.785199   0.000000
  233        5.082505   0.000000
  234        5.085442   0.000000
  235        5.224106   0.000000
  236        5.224607   0.000000
  237        5.408793   0.000000
  238        5.526802   0.000000
  239        5.563241   0.000000
  240        5.700457   0.000000
 
 -0.3750000E+00  0.3750000E+00  0.0000000E+00  0.1250000E+00
    1       -8.201666   1.000000
    2       -7.587511   1.000000
    3       -7.582055   1.000000
    4       -6.997427   1.000000
    5       -6.703656   1.000000
    6       -6.169749   1.000000
    7       -6.158900   1.000000
    8       -5.659810   1.000000
    9       -5.074008   1.000000
   10       -5.066739   1.000000
   11       -4.932145   1.000000
   12       -4.890499   1.000000
   13       -4.881307   1.000000
   14       -4.838748   1.000000
   15       -4.809086   1.000000
   16       -4.806781   1.000000
   17       -4.780422   1.000000
   18       -4.629595   1.000000
   19       -4.614503   1.000000
   20       -4.609230   1.000000
   21       -4.592165   1.000000
   22       -4.588765   1.000000
   23       -4.467620   1.000000
   24       -4.465163   1.000000
   25       -4.434827   1.000000
   26       -4.427837   1.000000
   27       -4.397731   1.000000
   28       -4.391787   1.000000
   29       -4.380317   1.000000
   30       -4.377358   1.000000
   31       -4.309388   1.000000
   32       -4.289106   1.000000
   33       -4.283953   1.000000
   34       -4.279402   1.000000
   35       -4.233965   1.000000
   36       -4.229176   1.000000
   37       -4.209075   1.000000
   38       -4.154005   1.000000
   39       -4.150820   1.000000
   40       -4.142852   1.000000
   41       -4.095157   1.000000
   42       -3.974648   1.000000
   43       -3.935649   1.000000
   44       -3.898113   1.000000
   45       -3.895316   1.000000
   46       -3.833602   1.000000
   47       -3.823065   1.000000
   48       -3.808105   1.000000
   49       -3.801845   1.000000
   50       -3.795788   1.000000
   51       -3.779517   1.000000
   52       -3.774910   1.000000
   53       -3.740121   1.000000
   54       -3.731268   1.000000
   55       -3.698050   1.000000
   56       -3.614358   1.000000
   57       -3.605619   1.000000
   58       -3.597342   1.000000
   59       -3.590033   1.000000
   60       -3.552968   1.000000
   61       -3.545499   1.000000
   62       -3.511604   1.000000
   63       -3.509399   1.000000
   64       -3.469013   1.000000
   65       -3.458323   1.000000
   66       -3.443253   1.000000
   67       -3.434007   1.000000
   68       -3.421978   1.000000
   69       -3.412575   1.000000
   70       -3.366087   1.000000
   71       -3.356146   1.000000
   72       -3.335582   1.000000
   73       -3.331846   1.000000
   74       -3.321740   1.000000
   75       -3.311790   1.000000
   76       -3.277779   1.000000
   77       -3.242984   1.000000
   78       -3.235772   1.000000
   79       -3.232436   1.000000
   80       -3.227210   1.000000
   81       -3.224777   1.000000
   82       -3.216903   1.000000
   83       -3.160988   1.000000
   84       -3.148163   1.000000
   85       -3.143474   1.000000
   86       -3.124992   1.000000
   87       -3.107604   1.000000
   88       -3.105692   1.000000
   89       -3.075541   1.000000
   90       -3.071239   1.000000
   91       -3.048040   1.000000
   92       -3.042114   1.000000
   93       -3.039148   1.000000
   94       -3.003126   1.000000
   95       -2.999004   1.000000
   96       -2.951421   1.000000
   97       -2.935866   1.000000
   98       -2.933836   1.000000
   99       -2.916241   1.000000
  100       -2.901306   1.000000
  101       -2.895924   1.000000
  102       -2.861679   1.000000
  103       -2.840120   1.000000
  104       -2.836133   1.000000
  105       -2.833414   1.000000
  106       -2.828542   1.000000
  107       -2.817000   1.000000
  108       -2.816274   1.000000
  109       -2.810438   1.000000
  110       -2.798351   1.000000
  111       -2.749191   1.000000
  112       -2.745585   1.000000
  113       -2.742711   1.000000
  114       -2.734564   1.000000
  115       -2.718707   1.000000
  116       -2.709651   1.000000
  117       -2.694515   1.000000
  118       -2.690253   1.000000
  119       -2.685761   1.000000
  120       -2.683849   1.000000
  121       -2.678094   1.000000
  122       -2.675104   1.000000
  123       -2.668289   1.000000
  124       -2.655481   1.000000
  125       -2.652863   1.000000
  126       -2.652072   1.000000
  127       -2.619575   1.000000
  128       -2.595134   1.000000
  129       -2.594206   1.000000
  130       -2.571246   1.000000
  131       -2.512831   1.000000
  132       -2.507775   1.000000
  133       -2.460608   1.000000
  134       -2.457774   1.000000
  135       -2.412725   1.000000
  136       -2.410375   1.000000
  137       -2.409437   1.000000
  138       -2.375956   1.000000
  139       -2.355195   1.000000
  140       -2.352454   1.000000
  141       -2.349951   1.000000
  142       -2.346352   1.000000
  143       -2.338170   1.000000
  144       -2.334093   1.000000
  145       -2.327808   1.000000
  146       -2.311617   1.000000
  147       -2.309896   1.000000
  148       -2.270360   1.000000
  149       -2.266971   1.000000
  150       -2.250473   1.000000
  151       -2.220896   1.000000
  152       -2.186246   1.000000
  153       -2.182308   1.000000
  154       -2.170961   1.000000
  155       -2.167491   1.000000
  156       -2.164205   1.000000
  157       -2.160628   1.000000
  158       -2.157536   1.000000
  159       -2.138717   1.000000
  160       -2.137708   1.000000
  161       -2.135487   1.000000
  162       -2.134230   1.000000
  163       -2.125568   1.000000
  164       -2.123928   1.000000
  165       -2.121465   1.000000
  166       -2.119561   1.000000
  167       -2.046771   1.000000
  168       -2.041648   1.000000
  169       -2.029759   1.000000
  170       -2.013427   1.000000
  171       -2.012421   1.000000
  172       -2.006826   1.000000
  173       -1.997489   1.000000
  174       -1.984879   1.000000
  175       -1.984632   1.000000
  176       -1.969272   1.000000
  177       -1.968637   1.000000
  178       -1.946851   1.000000
  179       -1.944784   1.000000
  180       -1.940985   1.000000
  181       -1.937627   1.000000
  182       -1.928882   1.000000
  183       -1.927014   1.000000
  184       -1.916948   1.000000
  185       -1.906763   1.000000
  186       -1.861536   1.000000
  187       -1.682477   1.000000
  188       -1.591100   1.000000
  189       -1.555517   1.000000
  190       -1.311122   1.000000
  191       -1.309729   1.000000
  192       -0.976646   0.999008
  193       -0.975124   0.998980
  194       -0.829998   0.995111
  195       -0.646496   1.048300
  196       -0.645482   1.048587
  197       -0.500892   0.826818
  198       -0.493849   0.797664
  199        0.069801   0.001973
  200        0.276680   0.000016
  201        0.281404   0.000013
  202        0.464915   0.000000
  203        0.466316   0.000000
  204        0.558471   0.000000
  205        0.562346   0.000000
  206        0.740109   0.000000
  207        0.749023   0.000000
  208        0.968706   0.000000
  209        0.971310   0.000000
  210        1.391191   0.000000
  211        1.541286   0.000000
  212        1.550035   0.000000
  213        1.607661   0.000000
  214        1.826840   0.000000
  215        2.353393   0.000000
  216        2.678361   0.000000
  217        2.687115   0.000000
  218        2.793441   0.000000
  219        2.802738   0.000000
  220        3.136838   0.000000
  221        3.139004   0.000000
  222        3.453434   0.000000
  223        3.499484   0.000000
  224        3.578154   0.000000
  225        3.581913   0.000000
  226        4.156477   0.000000
  227        4.178403   0.000000
  228        4.186628   0.000000
  229        4.379924   0.000000
  230        4.596184   0.000000
  231        4.782591   0.000000
  232        4.785135   0.000000
  233        5.082530   0.000000
  234        5.085335   0.000000
  235        5.224087   0.000000
  236        5.224603   0.000000
  237        5.409134   0.000000
  238        5.524373   0.000000
  239        5.545131   0.000000
  240        5.579567   0.000000
 
 -0.1250000E+00  0.3750000E+00  0.0000000E+00  0.1250000E+00
    1       -8.521719   1.000000
    2       -7.893594   1.000000
    3       -6.998693   1.000000
    4       -6.734666   1.000000
    5       -6.445768   1.000000
    6       -6.213785   1.000000
    7       -5.795488   1.000000
    8       -5.528124   1.000000
    9       -5.404111   1.000000
   10       -5.261155   1.000000
   11       -5.166265   1.000000
   12       -5.095304   1.000000
   13       -5.066738   1.000000
   14       -5.058344   1.000000
   15       -4.816398   1.000000
   16       -4.787638   1.000000
   17       -4.781554   1.000000
   18       -4.726935   1.000000
   19       -4.718105   1.000000
   20       -4.676952   1.000000
   21       -4.568308   1.000000
   22       -4.516416   1.000000
   23       -4.506973   1.000000
   24       -4.471121   1.000000
   25       -4.440281   1.000000
   26       -4.403654   1.000000
   27       -4.392802   1.000000
   28       -4.384651   1.000000
   29       -4.370486   1.000000
   30       -4.340595   1.000000
   31       -4.322448   1.000000
   32       -4.317167   1.000000
   33       -4.226947   1.000000
   34       -4.221161   1.000000
   35       -4.144069   1.000000
   36       -4.133206   1.000000
   37       -4.109252   1.000000
   38       -4.102016   1.000000
   39       -4.039279   1.000000
   40       -4.037174   1.000000
   41       -4.017341   1.000000
   42       -3.992144   1.000000
   43       -3.982081   1.000000
   44       -3.917375   1.000000
   45       -3.911491   1.000000
   46       -3.901831   1.000000
   47       -3.849003   1.000000
   48       -3.809666   1.000000
   49       -3.807632   1.000000
   50       -3.788682   1.000000
   51       -3.778799   1.000000
   52       -3.723890   1.000000
   53       -3.677809   1.000000
   54       -3.666214   1.000000
   55       -3.654062   1.000000
   56       -3.629719   1.000000
   57       -3.623101   1.000000
   58       -3.609653   1.000000
   59       -3.562725   1.000000
   60       -3.558850   1.000000
   61       -3.540145   1.000000
   62       -3.535788   1.000000
   63       -3.522792   1.000000
   64       -3.515469   1.000000
   65       -3.504785   1.000000
   66       -3.497201   1.000000
   67       -3.481211   1.000000
   68       -3.407528   1.000000
   69       -3.368249   1.000000
   70       -3.337727   1.000000
   71       -3.329791   1.000000
   72       -3.323504   1.000000
   73       -3.304528   1.000000
   74       -3.293263   1.000000
   75       -3.244192   1.000000
   76       -3.223609   1.000000
   77       -3.198430   1.000000
   78       -3.196522   1.000000
   79       -3.184393   1.000000
   80       -3.180203   1.000000
   81       -3.173427   1.000000
   82       -3.169479   1.000000
   83       -3.160658   1.000000
   84       -3.158747   1.000000
   85       -3.140496   1.000000
   86       -3.129108   1.000000
   87       -3.115298   1.000000
   88       -3.110558   1.000000
   89       -3.088288   1.000000
   90       -3.083149   1.000000
   91       -3.077013   1.000000
   92       -3.054793   1.000000
   93       -3.048043   1.000000
   94       -3.014269   1.000000
   95       -3.007399   1.000000
   96       -2.980112   1.000000
   97       -2.954894   1.000000
   98       -2.951766   1.000000
   99       -2.892020   1.000000
  100       -2.878301   1.000000
  101       -2.844107   1.000000
  102       -2.841925   1.000000
  103       -2.830788   1.000000
  104       -2.825903   1.000000
  105       -2.818209   1.000000
  106       -2.813929   1.000000
  107       -2.795716   1.000000
  108       -2.789818   1.000000
  109       -2.780440   1.000000
  110       -2.761616   1.000000
  111       -2.752441   1.000000
  112       -2.739412   1.000000
  113       -2.707238   1.000000
  114       -2.692056   1.000000
  115       -2.688163   1.000000
  116       -2.681268   1.000000
  117       -2.678475   1.000000
  118       -2.670327   1.000000
  119       -2.646088   1.000000
  120       -2.639709   1.000000
  121       -2.625725   1.000000
  122       -2.607497   1.000000
  123       -2.598579   1.000000
  124       -2.591850   1.000000
  125       -2.586165   1.000000
  126       -2.524675   1.000000
  127       -2.495423   1.000000
  128       -2.479517   1.000000
  129       -2.473088   1.000000
  130       -2.468189   1.000000
  131       -2.452567   1.000000
  132       -2.439693   1.000000
  133       -2.424615   1.000000
  134       -2.415058   1.000000
  135       -2.405422   1.000000
  136       -2.401813   1.000000
  137       -2.398456   1.000000
  138       -2.391831   1.000000
  139       -2.369915   1.000000
  140       -2.365085   1.000000
  141       -2.362904   1.000000
  142       -2.358289   1.000000
  143       -2.344510   1.000000
  144       -2.343250   1.000000
  145       -2.322017   1.000000
  146       -2.318857   1.000000
  147       -2.298969   1.000000
  148       -2.291786   1.000000
  149       -2.264568   1.000000
  150       -2.258126   1.000000
  151       -2.251766   1.000000
  152       -2.219452   1.000000
  153       -2.202555   1.000000
  154       -2.197460   1.000000
  155       -2.186629   1.000000
  156       -2.183885   1.000000
  157       -2.148998   1.000000
  158       -2.144311   1.000000
  159       -2.122368   1.000000
  160       -2.121497   1.000000
  161       -2.118779   1.000000
  162       -2.110087   1.000000
  163       -2.105318   1.000000
  164       -2.101028   1.000000
  165       -2.095820   1.000000
  166       -2.081577   1.000000
  167       -2.064291   1.000000
  168       -2.061176   1.000000
  169       -2.058957   1.000000
  170       -2.058005   1.000000
  171       -2.048086   1.000000
  172       -2.035824   1.000000
  173       -2.033470   1.000000
  174       -2.029306   1.000000
  175       -2.014525   1.000000
  176       -1.994452   1.000000
  177       -1.975713   1.000000
  178       -1.966079   1.000000
  179       -1.954846   1.000000
  180       -1.951506   1.000000
  181       -1.940858   1.000000
  182       -1.910407   1.000000
  183       -1.899799   1.000000
  184       -1.897320   1.000000
  185       -1.882065   1.000000
  186       -1.857820   1.000000
  187       -1.807418   1.000000
  188       -1.771934   1.000000
  189       -1.741669   1.000000
  190       -1.684398   1.000000
  191       -1.644329   1.000000
  192       -1.578167   1.000000
  193       -1.508552   1.000000
  194       -1.156312   0.999989
  195       -1.065793   0.999864
  196       -0.931659   0.997866
  197       -0.759703   1.002973
  198       -0.332407   0.058189
  199       -0.154293  -0.019325
  200       -0.140771  -0.013673
  201       -0.065927   0.003592
  202        0.035500   0.003161
  203        0.177765   0.000229
  204        0.380624   0.000000
  205        0.611138   0.000000
  206        0.809600   0.000000
  207        1.186414   0.000000
  208        1.333514   0.000000
  209        1.598562   0.000000
  210        1.616814   0.000000
  211        2.099335   0.000000
  212        2.195314   0.000000
  213        2.260872   0.000000
  214        2.284247   0.000000
  215        2.297735   0.000000
  216        2.630496   0.000000
  217        2.743821   0.000000
  218        2.828503   0.000000
  219        3.276681   0.000000
  220        3.286849   0.000000
  221        3.688648   0.000000
  222        3.720661   0.000000
  223        3.781242   0.000000
  224        3.840575   0.000000
  225        3.930170   0.000000
  226        4.009223   0.000000
  227        4.281612   0.000000
  228        4.469139   0.000000
  229        4.495783   0.000000
  230        4.552924   0.000000
  231        4.575751   0.000000
  232        4.878113   0.000000
  233        4.909201   0.000000
  234        5.031216   0.000000
  235        5.096178   0.000000
  236        5.245200   0.000000
  237        5.379414   0.000000
  238        5.500848   0.000000
  239        5.741378   0.000000
  240        5.904047   0.000000
