<?xml version="1.0" encoding="ISO-8859-1"?>
<modeling>
 <generator>
  <i name="program" type="string">vasp </i>
  <i name="version" type="string">5.4.4.18Apr17-6-g9f103f2a35  </i>
  <i name="subversion" type="string">(build Mar 06 2021 22:04:06) complex            parallel </i>
  <i name="platform" type="string">LinuxIFC </i>
  <i name="date" type="string">2024 03 06 </i>
  <i name="time" type="string">14:29:20 </i>
 </generator>
 <incar>
  <i type="string" name="PREC">normal</i>
  <i type="string" name="ALGO"> Very_Fast</i>
  <i type="int" name="ISPIN">     1</i>
  <i type="int" name="NELM">   400</i>
  <i type="int" name="IBRION">    -1</i>
  <i name="EDIFF">      0.00001000</i>
  <i name="EDIFFG">     -0.05000000</i>
  <i type="int" name="NSW">     0</i>
  <i type="int" name="ISIF">     2</i>
  <i type="int" name="ISYM">     0</i>
  <i name="SYMPREC">      0.00000000</i>
  <i name="ENCUT">    544.00000000</i>
  <i name="POTIM">      0.50000000</i>
  <i type="string" name="LREAL"> AUTO</i>
  <i type="int" name="ISMEAR">     2</i>
  <i name="SIGMA">      0.20000000</i>
  <i type="logical" name="LWAVE"> F  </i>
  <i type="logical" name="LCHARG"> F  </i>
  <i type="logical" name="LVTOT"> F  </i>
  <i type="logical" name="LVHAR"> T  </i>
  <v type="int" name="KPOINT_BSE">    -1     0     0     0</v>
  <i type="int" name="NELM">   400</i>
  <i type="string" name="GGA"> RP</i>
  <i type="int" name="VOSKOWN">     1</i>
  <i type="logical" name="LDIPOL"> T  </i>
  <i type="int" name="IDIPOL">     3</i>
  <i name="DIP%EFIELD">      0.10000000</i>
 </incar>
 <structure name="primitive_cell" >
  <crystal>
   <varray name="basis" >
    <v>       7.70037500       0.00000000       0.00000000 </v>
    <v>       0.00000000       7.70037500       0.00000000 </v>
    <v>       0.00000000       0.00000000      22.25999800 </v>
   </varray>
   <i name="volume">   1319.92383604 </i>
   <varray name="rec_basis" >
    <v>       0.12986381       0.00000000       0.00000000 </v>
    <v>       0.00000000       0.12986381       0.00000000 </v>
    <v>       0.00000000       0.00000000       0.04492363 </v>
   </varray>
  </crystal>
  <varray name="positions" >
   <v>       0.16666708       0.16666708       0.00000000 </v>
   <v>      -0.16666474       0.16666708       0.00000000 </v>
   <v>       0.16666708      -0.16666474       0.00000000 </v>
   <v>      -0.49999890       0.16666708       0.00000000 </v>
   <v>       0.16666708      -0.49999890       0.00000000 </v>
   <v>       0.00000000       0.00000000       0.08153640 </v>
   <v>       0.33333416       0.00000000       0.08153640 </v>
   <v>       0.00000000       0.33333416       0.08153640 </v>
   <v>       0.33333416       0.33333416       0.08153640 </v>
   <v>      -0.16666474      -0.16666474       0.00000000 </v>
   <v>      -0.49999890      -0.16666474       0.00000000 </v>
   <v>      -0.16666474      -0.49999890       0.00000000 </v>
   <v>      -0.49999890      -0.49999890       0.00000000 </v>
   <v>       0.16749132       0.16755171       0.16633056 </v>
   <v>      -0.33333182       0.00000000       0.08153640 </v>
   <v>       0.00000000      -0.33333182       0.08153640 </v>
   <v>      -0.33333182       0.33333416       0.08153640 </v>
   <v>       0.33333416      -0.33333182       0.08153640 </v>
   <v>       0.16775183       0.49998007       0.16359364 </v>
   <v>       0.16698693      -0.16730575       0.16625136 </v>
   <v>      -0.49976865       0.16854569       0.16659426 </v>
   <v>      -0.16617178       0.17046235       0.16772441 </v>
   <v>       0.49814808       0.49989721       0.16238928 </v>
   <v>      -0.16829583      -0.49939412       0.16558160 </v>
   <v>       0.49959450      -0.16856841       0.16657733 </v>
   <v>      -0.16658682      -0.16873568       0.16761520 </v>
   <v>      -0.33333182      -0.33333182       0.08153640 </v>
   <v>       0.00132513       0.00111748       0.24773960 </v>
   <v>       0.33395555      -0.00053335       0.24757473 </v>
   <v>       0.00244988       0.33616610       0.24967743 </v>
   <v>       0.33544626       0.33422567       0.25154063 </v>
   <v>      -0.33342857       0.00089502       0.24789836 </v>
   <v>       0.00045024      -0.33450267       0.24947307 </v>
   <v>       0.33368154      -0.33545509       0.25157729 </v>
   <v>      -0.33451657       0.33587572       0.25168187 </v>
   <v>      -0.33556392      -0.33401464       0.25129167 </v>
  </varray>
 </structure>
 <varray name="primitive_index" >
  <v type="int" >        1 </v>
  <v type="int" >        3 </v>
  <v type="int" >        7 </v>
  <v type="int" >        2 </v>
  <v type="int" >        4 </v>
  <v type="int" >       10 </v>
  <v type="int" >       11 </v>
  <v type="int" >       13 </v>
  <v type="int" >       14 </v>
  <v type="int" >        9 </v>
  <v type="int" >        8 </v>
  <v type="int" >        6 </v>
  <v type="int" >        5 </v>
  <v type="int" >       19 </v>
  <v type="int" >       12 </v>
  <v type="int" >       16 </v>
  <v type="int" >       15 </v>
  <v type="int" >       17 </v>
  <v type="int" >       22 </v>
  <v type="int" >       25 </v>
  <v type="int" >       20 </v>
  <v type="int" >       21 </v>
  <v type="int" >       23 </v>
  <v type="int" >       24 </v>
  <v type="int" >       26 </v>
  <v type="int" >       27 </v>
  <v type="int" >       18 </v>
  <v type="int" >       28 </v>
  <v type="int" >       29 </v>
  <v type="int" >       31 </v>
  <v type="int" >       32 </v>
  <v type="int" >       30 </v>
  <v type="int" >       34 </v>
  <v type="int" >       35 </v>
  <v type="int" >       33 </v>
  <v type="int" >       36 </v>
 </varray>
 <kpoints>
  <generation param="Monkhorst-Pack">
   <v type="int" name="divisions">       4        4        1 </v>
   <v name="usershift">      0.00000000       0.00000000       0.00000000 </v>
   <v name="genvec1">      0.25000000       0.00000000       0.00000000 </v>
   <v name="genvec2">      0.00000000       0.25000000       0.00000000 </v>
   <v name="genvec3">      0.00000000       0.00000000       1.00000000 </v>
   <v name="shift">      0.50000000       0.50000000       0.00000000 </v>
  </generation>
  <varray name="kpointlist" >
   <v>       0.12500000       0.12500000       0.00000000 </v>
   <v>       0.37500000       0.12500000       0.00000000 </v>
   <v>      -0.37500000       0.12500000       0.00000000 </v>
   <v>      -0.12500000       0.12500000       0.00000000 </v>
   <v>       0.12500000       0.37500000       0.00000000 </v>
   <v>       0.37500000       0.37500000       0.00000000 </v>
   <v>      -0.37500000       0.37500000       0.00000000 </v>
   <v>      -0.12500000       0.37500000       0.00000000 </v>
  </varray>
  <varray name="weights" >
   <v>       0.12500000 </v>
   <v>       0.12500000 </v>
   <v>       0.12500000 </v>
   <v>       0.12500000 </v>
   <v>       0.12500000 </v>
   <v>       0.12500000 </v>
   <v>       0.12500000 </v>
   <v>       0.12500000 </v>
  </varray>
 </kpoints>
 <parameters>
  <separator name="general" >
   <i type="string" name="SYSTEM">unknown system</i>
   <i type="logical" name="LCOMPAT"> F  </i>
  </separator>
  <separator name="electronic" >
   <i type="string" name="PREC">normal</i>
   <i name="ENMAX">    544.00000000</i>
   <i name="ENAUG">    586.98000000</i>
   <i name="EDIFF">      0.00001000</i>
   <i type="int" name="IALGO">    48</i>
   <i type="int" name="IWAVPR">    10</i>
   <i type="int" name="NBANDS">   240</i>
   <i name="NELECT">    396.00000000</i>
   <i type="int" name="TURBO">     0</i>
   <i type="int" name="IRESTART">     0</i>
   <i type="int" name="NREBOOT">     0</i>
   <i type="int" name="NMIN">     0</i>
   <i name="EREF">      0.00000000</i>
   <separator name="electronic smearing" >
    <i type="int" name="ISMEAR">     2</i>
    <i name="SIGMA">      0.20000000</i>
    <i name="KSPACING">      0.50000000</i>
    <i type="logical" name="KGAMMA"> T  </i>
   </separator>
   <separator name="electronic projectors" >
    <i type="logical" name="LREAL"> T  </i>
    <v name="ROPT">     -0.00050000</v>
    <i type="int" name="LMAXPAW">  -100</i>
    <i type="int" name="LMAXMIX">     2</i>
    <i type="logical" name="NLSPLINE"> F  </i>
   </separator>
   <separator name="electronic startup" >
    <i type="int" name="ISTART">     0</i>
    <i type="int" name="ICHARG">     2</i>
    <i type="int" name="INIWAV">     1</i>
   </separator>
   <separator name="electronic spin" >
    <i type="int" name="ISPIN">     1</i>
    <i type="logical" name="LNONCOLLINEAR"> F  </i>
    <v name="MAGMOM">      1.00000000      1.00000000      1.00000000      1.00000000      1.00000000      1.00000000      1.00000000      1.00000000      1.00000000      1.00000000      1.00000000      1.00000000      1.00000000      1.00000000      1.00000000      1.00000000      1.00000000      1.00000000      1.00000000      1.00000000
      1.00000000      1.00000000      1.00000000      1.00000000      1.00000000      1.00000000      1.00000000      1.00000000      1.00000000      1.00000000      1.00000000      1.00000000      1.00000000      1.00000000      1.00000000      1.00000000</v>
    <i name="NUPDOWN">     -1.00000000</i>
    <i type="logical" name="LSORBIT"> F  </i>
    <v name="SAXIS">      0.00000000      0.00000000      1.00000000</v>
    <i type="logical" name="LSPIRAL"> F  </i>
    <v name="QSPIRAL">      0.00000000      0.00000000      0.00000000</v>
    <i type="logical" name="LZEROZ"> F  </i>
   </separator>
   <separator name="electronic exchange-correlation" >
    <i type="logical" name="LASPH"> F  </i>
    <i type="logical" name="LMETAGGA"> F  </i>
   </separator>
   <separator name="electronic convergence" >
    <i type="int" name="NELM">   400</i>
    <i type="int" name="NELMDL">   -12</i>
    <i type="int" name="NELMIN">     2</i>
    <i name="ENINI">    544.00000000</i>
    <separator name="electronic convergence detail" >
     <i type="logical" name="LDIAG"> T  </i>
     <i type="logical" name="LSUBROT"> F  </i>
     <i name="WEIMIN">      0.00000000</i>
     <i name="EBREAK">      0.00000001</i>
     <i name="DEPER">      0.30000000</i>
     <i type="int" name="NRMM">     4</i>
     <i name="TIME">      0.40000000</i>
    </separator>
   </separator>
   <separator name="electronic mixer" >
    <i name="AMIX">      0.40000000</i>
    <i name="BMIX">      1.00000000</i>
    <i name="AMIN">      0.10000000</i>
    <i name="AMIX_MAG">      1.60000000</i>
    <i name="BMIX_MAG">      1.00000000</i>
    <separator name="electronic mixer details" >
     <i type="int" name="IMIX">     4</i>
     <i type="logical" name="MIXFIRST"> F  </i>
     <i type="int" name="MAXMIX">   -45</i>
     <i name="WC">    100.00000000</i>
     <i type="int" name="INIMIX">     1</i>
     <i type="int" name="MIXPRE">     1</i>
     <i type="int" name="MREMOVE">     5</i>
    </separator>
   </separator>
   <separator name="electronic dipolcorrection" >
    <i type="logical" name="LDIPOL"> T  </i>
    <i type="logical" name="LMONO"> F  </i>
    <i type="int" name="IDIPOL">     3</i>
    <i name="EPSILON">      1.00000000</i>
    <v name="DIPOL">   -100.00000000   -100.00000000   -100.00000000</v>
    <i name="EFIELD">      0.10000000</i>
   </separator>
  </separator>
  <separator name="grids" >
   <i type="int" name="NGX">    48</i>
   <i type="int" name="NGY">    48</i>
   <i type="int" name="NGZ">   128</i>
   <i type="int" name="NGXF">    96</i>
   <i type="int" name="NGYF">    96</i>
   <i type="int" name="NGZF">   256</i>
   <i type="logical" name="ADDGRID"> F  </i>
  </separator>
  <separator name="ionic" >
   <i type="int" name="NSW">     0</i>
   <i type="int" name="IBRION">    -1</i>
   <i type="int" name="MDALGO">     0</i>
   <i type="int" name="ISIF">     2</i>
   <i name="PSTRESS">      0.00000000</i>
   <i name="EDIFFG">     -0.05000000</i>
   <i type="int" name="NFREE">     0</i>
   <i name="POTIM">      0.50000000</i>
   <i name="SMASS">     -3.00000000</i>
   <i name="SCALEE">      1.00000000</i>
  </separator>
  <separator name="ionic md" >
   <i name="TEBEG">      0.00010000</i>
   <i name="TEEND">      0.00010000</i>
   <i type="int" name="NBLOCK">     1</i>
   <i type="int" name="KBLOCK">     1</i>
   <i type="int" name="NPACO">   256</i>
   <i name="APACO">     16.00000000</i>
  </separator>
  <separator name="symmetry" >
   <i type="int" name="ISYM">     0</i>
   <i name="SYMPREC">      0.00000000</i>
  </separator>
  <separator name="dos" >
   <i type="int" name="LORBIT">     0</i>
   <v name="RWIGS">     -1.00000000</v>
   <i type="int" name="NEDOS">   301</i>
   <i name="EMIN">     10.00000000</i>
   <i name="EMAX">    -10.00000000</i>
   <i name="EFERMI">      0.00000000</i>
  </separator>
  <separator name="writing" >
   <i type="int" name="NWRITE">     2</i>
   <i type="logical" name="LWAVE"> F  </i>
   <i type="logical" name="LDOWNSAMPLE"> F  </i>
   <i type="logical" name="LCHARG"> F  </i>
   <i type="logical" name="LPARD"> F  </i>
   <i type="logical" name="LVTOT"> F  </i>
   <i type="logical" name="LVHAR"> T  </i>
   <i type="logical" name="LELF"> F  </i>
   <i type="logical" name="LOPTICS"> F  </i>
   <v name="STM">      0.00000000      0.00000000      0.00000000      0.00000000      0.00000000      0.00000000      0.00000000</v>
  </separator>
  <separator name="performance" >
   <i type="int" name="NPAR">    16</i>
   <i type="int" name="NSIM">     4</i>
   <i type="int" name="NBLK">    -1</i>
   <i type="logical" name="LPLANE"> T  </i>
   <i type="logical" name="LSCALAPACK"> T  </i>
   <i type="logical" name="LSCAAWARE"> F  </i>
   <i type="logical" name="LSCALU"> F  </i>
   <i type="logical" name="LASYNC"> F  </i>
   <i type="logical" name="LORBITALREAL"> F  </i>
  </separator>
  <separator name="miscellaneous" >
   <i type="int" name="IDIOT">     3</i>
   <i type="int" name="ISPECIAL">     0</i>
   <i type="logical" name="LMUSIC"> F  </i>
   <v name="POMASS">     63.54600000</v>
   <v name="DARWINR">      0.00000000</v>
   <v name="DARWINV">      1.00000000</v>
   <i type="logical" name="LCORR"> T  </i>
  </separator>
  <i type="logical" name="GGA_COMPAT"> T  </i>
  <i type="logical" name="LBERRY"> F  </i>
  <i type="int" name="ICORELEVEL">     0</i>
  <i type="logical" name="LDAU"> F  </i>
  <i type="int" name="I_CONSTRAINED_M">     0</i>
  <separator name="electronic exchange-correlation" >
   <i type="string" name="GGA">RP</i>
   <i type="int" name="VOSKOWN">     1</i>
   <i type="logical" name="LHFCALC"> F  </i>
   <i type="string" name="PRECFOCK"></i>
   <i type="logical" name="LSYMGRAD"> F  </i>
   <i type="logical" name="LHFONE"> F  </i>
   <i type="logical" name="LRHFCALC"> F  </i>
   <i type="logical" name="LTHOMAS"> F  </i>
   <i type="logical" name="LMODELHF"> F  </i>
   <i name="ENCUT4O">     -1.00000000</i>
   <i type="int" name="EXXOEP">     0</i>
   <i type="int" name="FOURORBIT">     0</i>
   <i name="AEXX">      0.00000000</i>
   <i name="HFALPHA">      0.00000000</i>
   <i name="MCALPHA">      0.00000000</i>
   <i name="ALDAX">      1.00000000</i>
   <i name="AGGAX">      1.00000000</i>
   <i name="ALDAC">      1.00000000</i>
   <i name="AGGAC">      1.00000000</i>
   <i type="int" name="NKREDX">     1</i>
   <i type="int" name="NKREDY">     1</i>
   <i type="int" name="NKREDZ">     1</i>
   <i type="logical" name="SHIFTRED"> F  </i>
   <i type="logical" name="ODDONLY"> F  </i>
   <i type="logical" name="EVENONLY"> F  </i>
   <i type="int" name="LMAXFOCK">     0</i>
   <i type="int" name="NMAXFOCKAE">     0</i>
   <i type="logical" name="LFOCKAEDFT"> F  </i>
   <i name="HFSCREEN">      0.00000000</i>
   <i name="HFSCREENC">      0.00000000</i>
   <i type="int" name="NBANDSGWLOW">     0</i>
  </separator>
  <separator name="vdW DFT" >
   <i type="logical" name="LUSE_VDW"> F  </i>
   <i name="Zab_VDW">     -0.84910000</i>
   <i name="PARAM1">      0.12340000</i>
   <i name="PARAM2">      1.00000000</i>
   <i name="PARAM3">      0.00000000</i>
  </separator>
  <separator name="model GW" >
   <i type="int" name="MODEL_GW">     0</i>
   <i name="MODEL_EPS0">     21.99873060</i>
   <i name="MODEL_ALPHA">      1.00000000</i>
  </separator>
  <separator name="linear response parameters" >
   <i type="logical" name="LEPSILON"> F  </i>
   <i type="logical" name="LRPA"> F  </i>
   <i type="logical" name="LNABLA"> F  </i>
   <i type="logical" name="LVEL"> F  </i>
   <i type="int" name="KINTER">     0</i>
   <i name="CSHIFT">      0.10000000</i>
   <i name="OMEGAMAX">     -1.00000000</i>
   <i name="DEG_THRESHOLD">      0.00200000</i>
   <i name="RTIME">     -0.10000000</i>
   <i name="WPLASMAI">      0.00000000</i>
   <v name="DFIELD">      0.00000000      0.00000000      0.00000000</v>
   <v name="WPLASMA">      0.00000000      0.00000000      0.00000000      0.00000000      0.00000000      0.00000000      0.00000000      0.00000000      0.00000000</v>
  </separator>
  <separator name="orbital magnetization" >
   <i type="logical" name="NUCIND"> F  </i>
   <v name="MAGPOS">      0.00000000      0.00000000      0.00000000</v>
   <i type="logical" name="LNICSALL"> T  </i>
   <i type="logical" name="ORBITALMAG"> F  </i>
   <i type="logical" name="LMAGBLOCH"> F  </i>
   <i type="logical" name="LCHIMAG"> F  </i>
   <i type="logical" name="LGAUGE"> T  </i>
   <i type="int" name="MAGATOM">     0</i>
   <v name="MAGDIPOL">      0.00000000      0.00000000      0.00000000</v>
   <v name="AVECCONST">      0.00000000      0.00000000      0.00000000</v>
  </separator>
  <separator name="response functions" >
   <i type="logical" name="LADDER"> F  </i>
   <i type="logical" name="LRPAFORCE"> F  </i>
   <i type="logical" name="LFXC"> F  </i>
   <i type="logical" name="LHARTREE"> T  </i>
   <i type="int" name="IBSE">     0</i>
   <v type="int" name="KPOINT">    -1     0     0     0</v>
   <i type="logical" name="LTCTE"> F  </i>
   <i type="logical" name="LTETE"> F  </i>
   <i type="logical" name="LTRIPLET"> F  </i>
   <i type="logical" name="LFXCEPS"> F  </i>
   <i type="logical" name="LFXHEG"> F  </i>
   <i type="int" name="NATURALO">     2</i>
   <i type="logical" name="L2ORDER"> F  </i>
   <i type="logical" name="LMP2LT"> F  </i>
   <i type="logical" name="LUSEW"> F  </i>
   <i name="ENCUTGW">     -2.00000000</i>
   <i name="ENCUTGWSOFT">     -2.00000000</i>
   <i name="ENCUTLF">     -1.00000000</i>
   <i type="int" name="LMAXMP2">    -1</i>
   <i name="SCISSOR">      0.00000000</i>
   <i type="int" name="NOMEGA">     0</i>
   <i type="int" name="NOMEGAR">     0</i>
   <i type="int" name="NBANDSGW">    -1</i>
   <i type="int" name="NBANDSO">    -1</i>
   <i type="int" name="NBANDSV">    -1</i>
   <i type="int" name="NELM">   400</i>
   <i type="int" name="NELMHF">     1</i>
   <i type="int" name="DIM">     3</i>
   <i type="int" name="ANTIRES">     0</i>
   <i name="OMEGAMAX">    -30.00000000</i>
   <i name="OMEGAMIN">    -30.00000000</i>
   <i name="OMEGATL">   -200.00000000</i>
   <i type="int" name="OMEGAGRID">   140</i>
   <i name="CSHIFT">     -0.10000000</i>
   <i type="logical" name="SELFENERGY"> F  </i>
   <i type="logical" name="LSPECTRAL"> F  </i>
   <i type="logical" name="LSPECTRALGW"> F  </i>
   <i type="logical" name="LSINGLES"> F  </i>
   <i type="logical" name="LFERMIGW"> F  </i>
   <i type="logical" name="ODDONLYGW"> F  </i>
   <i type="logical" name="EVENONLYGW"> F  </i>
   <i type="int" name="NKREDLFX">     1</i>
   <i type="int" name="NKREDLFY">     1</i>
   <i type="int" name="NKREDLFZ">     1</i>
   <i type="int" name="MAXMEM">  2800</i>
   <i type="int" name="TELESCOPE">     0</i>
   <i type="int" name="TAUPAR">     1</i>
   <i type="int" name="OMEGAPAR">    -1</i>
   <i name="LAMBDA">      1.00000000</i>
  </separator>
  <separator name="External order field" >
   <i name="OFIELD_KAPPA">      0.00000000</i>
   <v name="OFIELD_K">      0.00000000      0.00000000      0.00000000</v>
   <i name="OFIELD_Q6_NEAR">      0.00000000</i>
   <i name="OFIELD_Q6_FAR">      0.00000000</i>
   <i name="OFIELD_A">      0.00000000</i>
  </separator>
  <separator name="solvation model" >
   <i type="logical" name="LSOL"> F  </i>
  </separator>
 </parameters>
 <atominfo>
  <atoms>      36 </atoms>
  <types>       1 </types>
  <array name="atoms" >
   <dimension dim="1">ion</dimension>
   <field type="string">element</field>
   <field type="int">atomtype</field>
   <set>
    <rc><c>Cu</c><c>   1</c></rc>
    <rc><c>Cu</c><c>   1</c></rc>
    <rc><c>Cu</c><c>   1</c></rc>
    <rc><c>Cu</c><c>   1</c></rc>
    <rc><c>Cu</c><c>   1</c></rc>
    <rc><c>Cu</c><c>   1</c></rc>
    <rc><c>Cu</c><c>   1</c></rc>
    <rc><c>Cu</c><c>   1</c></rc>
    <rc><c>Cu</c><c>   1</c></rc>
    <rc><c>Cu</c><c>   1</c></rc>
    <rc><c>Cu</c><c>   1</c></rc>
    <rc><c>Cu</c><c>   1</c></rc>
    <rc><c>Cu</c><c>   1</c></rc>
    <rc><c>Cu</c><c>   1</c></rc>
    <rc><c>Cu</c><c>   1</c></rc>
    <rc><c>Cu</c><c>   1</c></rc>
    <rc><c>Cu</c><c>   1</c></rc>
    <rc><c>Cu</c><c>   1</c></rc>
    <rc><c>Cu</c><c>   1</c></rc>
    <rc><c>Cu</c><c>   1</c></rc>
    <rc><c>Cu</c><c>   1</c></rc>
    <rc><c>Cu</c><c>   1</c></rc>
    <rc><c>Cu</c><c>   1</c></rc>
    <rc><c>Cu</c><c>   1</c></rc>
    <rc><c>Cu</c><c>   1</c></rc>
    <rc><c>Cu</c><c>   1</c></rc>
    <rc><c>Cu</c><c>   1</c></rc>
    <rc><c>Cu</c><c>   1</c></rc>
    <rc><c>Cu</c><c>   1</c></rc>
    <rc><c>Cu</c><c>   1</c></rc>
    <rc><c>Cu</c><c>   1</c></rc>
    <rc><c>Cu</c><c>   1</c></rc>
    <rc><c>Cu</c><c>   1</c></rc>
    <rc><c>Cu</c><c>   1</c></rc>
    <rc><c>Cu</c><c>   1</c></rc>
    <rc><c>Cu</c><c>   1</c></rc>
   </set>
  </array>
  <array name="atomtypes" >
   <dimension dim="1">type</dimension>
   <field type="int">atomspertype</field>
   <field type="string">element</field>
   <field>mass</field>
   <field>valence</field>
   <field type="string">pseudopotential</field>
   <set>
    <rc><c>  36</c><c>Cu</c><c>     63.54600000</c><c>     11.00000000</c><c>  PAW_PBE Cu 22Jun2005                  </c></rc>
   </set>
  </array>
 </atominfo>
 <structure name="initialpos" >
  <crystal>
   <varray name="basis" >
    <v>       7.70037500       0.00000000       0.00000000 </v>
    <v>       0.00000000       7.70037500       0.00000000 </v>
    <v>       0.00000000       0.00000000      22.25999800 </v>
   </varray>
   <i name="volume">   1319.92383604 </i>
   <varray name="rec_basis" >
    <v>       0.12986381       0.00000000       0.00000000 </v>
    <v>       0.00000000       0.12986381       0.00000000 </v>
    <v>       0.00000000       0.00000000       0.04492363 </v>
   </varray>
  </crystal>
  <varray name="positions" >
   <v>       0.16666708       0.16666708       0.00000000 </v>
   <v>       0.50000110       0.16666708       0.00000000 </v>
   <v>       0.83333526       0.16666708       0.00000000 </v>
   <v>       0.16666708       0.50000110       0.00000000 </v>
   <v>       0.50000110       0.50000110       0.00000000 </v>
   <v>       0.83333526       0.50000110       0.00000000 </v>
   <v>       0.16666708       0.83333526       0.00000000 </v>
   <v>       0.50000110       0.83333526       0.00000000 </v>
   <v>       0.83333526       0.83333526       0.00000000 </v>
   <v>       0.00000000       0.00000000       0.08153640 </v>
   <v>       0.33333416       0.00000000       0.08153640 </v>
   <v>       0.66666818       0.00000000       0.08153640 </v>
   <v>       0.00000000       0.33333416       0.08153640 </v>
   <v>       0.33333416       0.33333416       0.08153640 </v>
   <v>       0.66666818       0.33333416       0.08153640 </v>
   <v>       0.00000000       0.66666818       0.08153640 </v>
   <v>       0.33333416       0.66666818       0.08153640 </v>
   <v>       0.66666818       0.66666818       0.08153640 </v>
   <v>       0.16749132       0.16755171       0.16633056 </v>
   <v>       0.50023135       0.16854569       0.16659426 </v>
   <v>       0.83382822       0.17046235       0.16772441 </v>
   <v>       0.16775183       0.49998007       0.16359364 </v>
   <v>       0.49814808       0.49989721       0.16238928 </v>
   <v>       0.83170417       0.50060588       0.16558160 </v>
   <v>       0.16698693       0.83269425       0.16625136 </v>
   <v>       0.49959450       0.83143159       0.16657733 </v>
   <v>       0.83341318       0.83126432       0.16761520 </v>
   <v>       0.00132513       0.00111748       0.24773960 </v>
   <v>       0.33395555       0.99946665       0.24757473 </v>
   <v>       0.66657143       0.00089502       0.24789836 </v>
   <v>       0.00244988       0.33616610       0.24967743 </v>
   <v>       0.33544626       0.33422567       0.25154063 </v>
   <v>       0.66548343       0.33587572       0.25168187 </v>
   <v>       0.00045024       0.66549733       0.24947307 </v>
   <v>       0.33368154       0.66454491       0.25157729 </v>
   <v>       0.66443608       0.66598536       0.25129167 </v>
  </varray>
  <varray name="selective"  type="logical" >
   <v type="logical" >  F  F  F </v>
   <v type="logical" >  F  F  F </v>
   <v type="logical" >  F  F  F </v>
   <v type="logical" >  F  F  F </v>
   <v type="logical" >  F  F  F </v>
   <v type="logical" >  F  F  F </v>
   <v type="logical" >  F  F  F </v>
   <v type="logical" >  F  F  F </v>
   <v type="logical" >  F  F  F </v>
   <v type="logical" >  F  F  F </v>
   <v type="logical" >  F  F  F </v>
   <v type="logical" >  F  F  F </v>
   <v type="logical" >  F  F  F </v>
   <v type="logical" >  F  F  F </v>
   <v type="logical" >  F  F  F </v>
   <v type="logical" >  F  F  F </v>
   <v type="logical" >  F  F  F </v>
   <v type="logical" >  F  F  F </v>
   <v type="logical" >  T  T  T </v>
   <v type="logical" >  T  T  T </v>
   <v type="logical" >  T  T  T </v>
   <v type="logical" >  T  T  T </v>
   <v type="logical" >  T  T  T </v>
   <v type="logical" >  T  T  T </v>
   <v type="logical" >  T  T  T </v>
   <v type="logical" >  T  T  T </v>
   <v type="logical" >  T  T  T </v>
   <v type="logical" >  T  T  T </v>
   <v type="logical" >  T  T  T </v>
   <v type="logical" >  T  T  T </v>
   <v type="logical" >  T  T  T </v>
   <v type="logical" >  T  T  T </v>
   <v type="logical" >  T  T  T </v>
   <v type="logical" >  T  T  T </v>
   <v type="logical" >  T  T  T </v>
   <v type="logical" >  T  T  T </v>
  </varray>
  <nose>
   <v>      -3.00000000       0.00000000       0.00010000       0.00010000 </v>
  </nose>
 </structure>
 <calculation>
  <scstep>
   <time name="diag">    2.46    2.50</time>
   <time name="diis">    3.93    3.96</time>
   <time name="orth">    0.59    0.59</time>
   <time name="total">    7.08    7.15</time>
   <dipole>
    <v name="dipole">      0.00000000       0.00000000       0.00006939 </v>
    <i name="Tr[quadrupol]">  -4128.49377527 </i>
    <i name="Echarged">      0.00000000 </i>
    <i name="Edipol_quadrupol">      0.00000000 </i>
    <i name="Eion">      0.00000000 </i>
   </dipole>
   <energy>
    <i name="alphaZ">    707.12998421 </i>
    <i name="ewald"> 164226.44806453 </i>
    <i name="hartreedc">-212025.95640762 </i>
    <i name="XCdc">   1613.73814842 </i>
    <i name="pawpsdc">  44243.50493509 </i>
    <i name="pawaedc"> -48017.47383163 </i>
    <i name="eentropy">      0.00305622 </i>
    <i name="bandstr">   2388.71383924 </i>
    <i name="atom">  50037.92390023 </i>
    <i name="e_fr_energy">   3174.03168869 </i>
    <i name="e_wo_entrp">   3174.02863247 </i>
    <i name="e_0_energy">   3174.03092463 </i>
   </energy>
  </scstep>
  <scstep>
   <time name="diag">    2.44    2.46</time>
   <time name="diis">    3.93    3.95</time>
   <time name="orth">    0.59    0.59</time>
   <time name="total">    6.96    7.01</time>
   <dipole>
    <v name="dipole">      0.00000000       0.00000000       0.00006939 </v>
    <i name="Tr[quadrupol]">  -4128.49377527 </i>
    <i name="Echarged">      0.00000000 </i>
    <i name="Edipol_quadrupol">      0.00000000 </i>
    <i name="Eion">      0.00000000 </i>
   </dipole>
   <energy>
    <i name="e_fr_energy">    715.07316929 </i>
    <i name="e_wo_entrp">    715.09062631 </i>
    <i name="e_0_energy">    715.07753355 </i>
   </energy>
  </scstep>
  <scstep>
   <time name="diag">    2.45    2.46</time>
   <time name="diis">    3.92    3.94</time>
   <time name="orth">    0.59    0.59</time>
   <time name="total">    6.95    7.00</time>
   <dipole>
    <v name="dipole">      0.00000000       0.00000000       0.00006939 </v>
    <i name="Tr[quadrupol]">  -4128.49377527 </i>
    <i name="Echarged">      0.00000000 </i>
    <i name="Edipol_quadrupol">      0.00000000 </i>
    <i name="Eion">      0.00000000 </i>
   </dipole>
   <energy>
    <i name="e_fr_energy">    164.24737734 </i>
    <i name="e_wo_entrp">    164.21890412 </i>
    <i name="e_0_energy">    164.24025903 </i>
   </energy>
  </scstep>
  <scstep>
   <time name="diag">    2.44    2.46</time>
   <time name="diis">    3.88    3.91</time>
   <time name="orth">    0.59    0.59</time>
   <time name="total">    6.91    6.96</time>
   <dipole>
    <v name="dipole">      0.00000000       0.00000000       0.00006939 </v>
    <i name="Tr[quadrupol]">  -4128.49377527 </i>
    <i name="Echarged">      0.00000000 </i>
    <i name="Edipol_quadrupol">      0.00000000 </i>
    <i name="Eion">      0.00000000 </i>
   </dipole>
   <energy>
    <i name="e_fr_energy">    -40.78963489 </i>
    <i name="e_wo_entrp">    -40.76981661 </i>
    <i name="e_0_energy">    -40.78468032 </i>
   </energy>
  </scstep>
  <scstep>
   <time name="diag">    2.45    2.46</time>
   <time name="diis">    3.92    3.94</time>
   <time name="orth">    0.59    0.59</time>
   <time name="total">    6.95    7.00</time>
   <dipole>
    <v name="dipole">      0.00000000       0.00000000       0.00006939 </v>
    <i name="Tr[quadrupol]">  -4128.49377527 </i>
    <i name="Echarged">      0.00000000 </i>
    <i name="Edipol_quadrupol">      0.00000000 </i>
    <i name="Eion">      0.00000000 </i>
   </dipole>
   <energy>
    <i name="e_fr_energy">    -90.38390535 </i>
    <i name="e_wo_entrp">    -90.34166074 </i>
    <i name="e_0_energy">    -90.37334420 </i>
   </energy>
  </scstep>
  <scstep>
   <time name="diag">    2.44    2.46</time>
   <time name="diis">    3.91    3.93</time>
   <time name="orth">    0.59    0.59</time>
   <time name="total">    6.94    6.99</time>
   <dipole>
    <v name="dipole">      0.00000000       0.00000000       0.00006939 </v>
    <i name="Tr[quadrupol]">  -4128.49377527 </i>
    <i name="Echarged">      0.00000000 </i>
    <i name="Edipol_quadrupol">      0.00000000 </i>
    <i name="Eion">      0.00000000 </i>
   </dipole>
   <energy>
    <i name="e_fr_energy">   -112.87664998 </i>
    <i name="e_wo_entrp">   -112.89633528 </i>
    <i name="e_0_energy">   -112.88157130 </i>
   </energy>
  </scstep>
  <scstep>
   <time name="diag">    2.44    2.46</time>
   <time name="diis">    4.01    4.03</time>
   <time name="orth">    0.59    0.59</time>
   <time name="total">    7.04    7.09</time>
   <dipole>
    <v name="dipole">      0.00000000       0.00000000       0.00006939 </v>
    <i name="Tr[quadrupol]">  -4128.49377527 </i>
    <i name="Echarged">      0.00000000 </i>
    <i name="Edipol_quadrupol">      0.00000000 </i>
    <i name="Eion">      0.00000000 </i>
   </dipole>
   <energy>
    <i name="e_fr_energy">   -123.56533754 </i>
    <i name="e_wo_entrp">   -123.50002311 </i>
    <i name="e_0_energy">   -123.54900893 </i>
   </energy>
  </scstep>
  <scstep>
   <time name="diag">    2.44    2.46</time>
   <time name="diis">    4.02    4.05</time>
   <time name="orth">    0.59    0.60</time>
   <time name="total">    7.06    7.11</time>
   <dipole>
    <v name="dipole">      0.00000000       0.00000000       0.00006939 </v>
    <i name="Tr[quadrupol]">  -4128.49377527 </i>
    <i name="Echarged">      0.00000000 </i>
    <i name="Edipol_quadrupol">      0.00000000 </i>
    <i name="Eion">      0.00000000 </i>
   </dipole>
   <energy>
    <i name="e_fr_energy">   -128.35555364 </i>
    <i name="e_wo_entrp">   -128.29490246 </i>
    <i name="e_0_energy">   -128.34039084 </i>
   </energy>
  </scstep>
  <scstep>
   <time name="diag">    2.43    2.45</time>
   <time name="diis">   10.12   10.19</time>
   <time name="orth">    0.59    0.59</time>
   <time name="total">   13.14   13.24</time>
   <dipole>
    <v name="dipole">      0.00000000       0.00000000       0.00006939 </v>
    <i name="Tr[quadrupol]">  -4128.49377527 </i>
    <i name="Echarged">      0.00000000 </i>
    <i name="Edipol_quadrupol">      0.00000000 </i>
    <i name="Eion">      0.00000000 </i>
   </dipole>
   <energy>
    <i name="e_fr_energy">   -131.96326828 </i>
    <i name="e_wo_entrp">   -131.90455968 </i>
    <i name="e_0_energy">   -131.94859113 </i>
   </energy>
  </scstep>
  <scstep>
   <time name="diag">    2.45    2.47</time>
   <time name="diis">    9.56    9.63</time>
   <time name="orth">    0.59    0.60</time>
   <time name="total">   12.61   12.69</time>
   <dipole>
    <v name="dipole">      0.00000000       0.00000000       0.00006939 </v>
    <i name="Tr[quadrupol]">  -4128.49377527 </i>
    <i name="Echarged">      0.00000000 </i>
    <i name="Edipol_quadrupol">      0.00000000 </i>
    <i name="Eion">      0.00000000 </i>
   </dipole>
   <energy>
    <i name="e_fr_energy">   -132.17768705 </i>
    <i name="e_wo_entrp">   -132.12065045 </i>
    <i name="e_0_energy">   -132.16342790 </i>
   </energy>
  </scstep>
  <scstep>
   <time name="diag">    2.45    2.46</time>
   <time name="diis">   10.12   10.19</time>
   <time name="orth">    0.59    0.60</time>
   <time name="total">   13.16   13.25</time>
   <dipole>
    <v name="dipole">      0.00000000       0.00000000       0.00006939 </v>
    <i name="Tr[quadrupol]">  -4128.49377527 </i>
    <i name="Echarged">      0.00000000 </i>
    <i name="Edipol_quadrupol">      0.00000000 </i>
    <i name="Eion">      0.00000000 </i>
   </dipole>
   <energy>
    <i name="e_fr_energy">   -132.19511948 </i>
    <i name="e_wo_entrp">   -132.13810560 </i>
    <i name="e_0_energy">   -132.18086601 </i>
   </energy>
  </scstep>
  <scstep>
   <time name="diag">    2.45    2.47</time>
   <time name="diis">    9.14    9.20</time>
   <time name="orth">    0.59    0.59</time>
   <time name="total">   12.81   12.90</time>
   <dipole>
    <v name="dipole">      0.00000000       0.00000000       0.00006939 </v>
    <i name="Tr[quadrupol]">  -4128.49377527 </i>
    <i name="Echarged">      0.00000000 </i>
    <i name="Edipol_quadrupol">      0.00000000 </i>
    <i name="Eion">      0.00000000 </i>
   </dipole>
   <energy>
    <i name="e_fr_energy">   -132.19552325 </i>
    <i name="e_wo_entrp">   -132.13851136 </i>
    <i name="e_0_energy">   -132.18127028 </i>
   </energy>
  </scstep>
  <scstep>
   <time name="diag">    2.45    2.46</time>
   <time name="diis">    8.43    8.49</time>
   <time name="orth">    0.59    0.59</time>
   <time name="total">   12.16   12.25</time>
   <dipole>
    <v name="dipole">      0.00000000       0.00000000       1.23164135 </v>
    <i name="Tr[quadrupol]">  -4129.10702783 </i>
    <i name="Echarged">      0.00000000 </i>
    <i name="Edipol_quadrupol">      0.00000000 </i>
    <i name="Eion">      0.00000000 </i>
   </dipole>
   <energy>
    <i name="e_fr_energy">   -126.19384493 </i>
    <i name="e_wo_entrp">   -126.17174860 </i>
    <i name="e_0_energy">   -126.18832085 </i>
   </energy>
  </scstep>
  <scstep>
   <time name="diag">    2.44    2.46</time>
   <time name="diis">    8.23    8.28</time>
   <time name="orth">    0.59    0.59</time>
   <time name="total">   11.97   12.05</time>
   <dipole>
    <v name="dipole">      0.00000000       0.00000000      -0.79653342 </v>
    <i name="Tr[quadrupol]">  -4130.62671028 </i>
    <i name="Echarged">      0.00000000 </i>
    <i name="Edipol_quadrupol">      0.00000000 </i>
    <i name="Eion">      0.00000000 </i>
   </dipole>
   <energy>
    <i name="e_fr_energy">   -116.38260067 </i>
    <i name="e_wo_entrp">   -116.33770284 </i>
    <i name="e_0_energy">   -116.37137621 </i>
   </energy>
  </scstep>
  <scstep>
   <time name="diag">    2.44    2.46</time>
   <time name="diis">    7.74    7.79</time>
   <time name="orth">    0.59    0.59</time>
   <time name="total">   11.47   11.55</time>
   <dipole>
    <v name="dipole">      0.00000000       0.00000000       0.47483246 </v>
    <i name="Tr[quadrupol]">  -4131.39084095 </i>
    <i name="Echarged">      0.00000000 </i>
    <i name="Edipol_quadrupol">      0.00000000 </i>
    <i name="Eion">      0.00000000 </i>
   </dipole>
   <energy>
    <i name="e_fr_energy">   -108.85767323 </i>
    <i name="e_wo_entrp">   -108.89371449 </i>
    <i name="e_0_energy">   -108.86668354 </i>
   </energy>
  </scstep>
  <scstep>
   <time name="diag">    2.44    2.46</time>
   <time name="diis">    8.03    8.08</time>
   <time name="orth">    0.59    0.59</time>
   <time name="total">   11.75   11.83</time>
   <dipole>
    <v name="dipole">      0.00000000       0.00000000       0.45555145 </v>
    <i name="Tr[quadrupol]">  -4131.29332120 </i>
    <i name="Echarged">      0.00000000 </i>
    <i name="Edipol_quadrupol">      0.00000000 </i>
    <i name="Eion">      0.00000000 </i>
   </dipole>
   <energy>
    <i name="e_fr_energy">   -108.26634696 </i>
    <i name="e_wo_entrp">   -108.29344107 </i>
    <i name="e_0_energy">   -108.27312049 </i>
   </energy>
  </scstep>
  <scstep>
   <time name="diag">    2.45    2.47</time>
   <time name="diis">    8.18    8.23</time>
   <time name="orth">    0.59    0.60</time>
   <time name="total">   11.94   12.02</time>
   <dipole>
    <v name="dipole">      0.00000000       0.00000000       0.40583627 </v>
    <i name="Tr[quadrupol]">  -4132.41486293 </i>
    <i name="Echarged">      0.00000000 </i>
    <i name="Edipol_quadrupol">      0.00000000 </i>
    <i name="Eion">      0.00000000 </i>
   </dipole>
   <energy>
    <i name="e_fr_energy">   -108.03557849 </i>
    <i name="e_wo_entrp">   -108.04120916 </i>
    <i name="e_0_energy">   -108.03698615 </i>
   </energy>
  </scstep>
  <scstep>
   <time name="diag">    2.44    2.46</time>
   <time name="diis">    8.08    8.14</time>
   <time name="orth">    0.59    0.59</time>
   <time name="total">   11.84   11.92</time>
   <dipole>
    <v name="dipole">      0.00000000       0.00000000       0.37758979 </v>
    <i name="Tr[quadrupol]">  -4132.73554172 </i>
    <i name="Echarged">      0.00000000 </i>
    <i name="Edipol_quadrupol">      0.00000000 </i>
    <i name="Eion">      0.00000000 </i>
   </dipole>
   <energy>
    <i name="e_fr_energy">   -107.99699568 </i>
    <i name="e_wo_entrp">   -108.00110581 </i>
    <i name="e_0_energy">   -107.99802321 </i>
   </energy>
  </scstep>
  <scstep>
   <time name="diag">    2.44    2.46</time>
   <time name="diis">    7.97    8.02</time>
   <time name="orth">    0.59    0.59</time>
   <time name="total">   11.69   11.77</time>
   <dipole>
    <v name="dipole">      0.00000000       0.00000000       0.35701521 </v>
    <i name="Tr[quadrupol]">  -4133.17350212 </i>
    <i name="Echarged">      0.00000000 </i>
    <i name="Edipol_quadrupol">      0.00000000 </i>
    <i name="Eion">      0.00000000 </i>
   </dipole>
   <energy>
    <i name="e_fr_energy">   -107.97517277 </i>
    <i name="e_wo_entrp">   -107.97828219 </i>
    <i name="e_0_energy">   -107.97595012 </i>
   </energy>
  </scstep>
  <scstep>
   <time name="diag">    2.44    2.45</time>
   <time name="diis">    8.22    8.27</time>
   <time name="orth">    0.59    0.59</time>
   <time name="total">   11.94   12.01</time>
   <dipole>
    <v name="dipole">      0.00000000       0.00000000       0.37015595 </v>
    <i name="Tr[quadrupol]">  -4133.39329557 </i>
    <i name="Echarged">      0.00000000 </i>
    <i name="Edipol_quadrupol">      0.00000000 </i>
    <i name="Eion">      0.00000000 </i>
   </dipole>
   <energy>
    <i name="e_fr_energy">   -107.96697911 </i>
    <i name="e_wo_entrp">   -107.96814866 </i>
    <i name="e_0_energy">   -107.96727150 </i>
   </energy>
  </scstep>
  <scstep>
   <time name="diag">    2.44    2.46</time>
   <time name="diis">    7.96    8.01</time>
   <time name="orth">    0.59    0.59</time>
   <time name="total">   11.70   11.78</time>
   <dipole>
    <v name="dipole">      0.00000000       0.00000000       0.34957368 </v>
    <i name="Tr[quadrupol]">  -4133.67883789 </i>
    <i name="Echarged">      0.00000000 </i>
    <i name="Edipol_quadrupol">      0.00000000 </i>
    <i name="Eion">      0.00000000 </i>
   </dipole>
   <energy>
    <i name="e_fr_energy">   -107.96080663 </i>
    <i name="e_wo_entrp">   -107.95926031 </i>
    <i name="e_0_energy">   -107.96042005 </i>
   </energy>
  </scstep>
  <scstep>
   <time name="diag">    2.45    2.46</time>
   <time name="diis">    7.97    8.02</time>
   <time name="orth">    0.59    0.59</time>
   <time name="total">   11.72   11.80</time>
   <dipole>
    <v name="dipole">      0.00000000       0.00000000       0.33113080 </v>
    <i name="Tr[quadrupol]">  -4134.00643830 </i>
    <i name="Echarged">      0.00000000 </i>
    <i name="Edipol_quadrupol">      0.00000000 </i>
    <i name="Eion">      0.00000000 </i>
   </dipole>
   <energy>
    <i name="e_fr_energy">   -107.95641262 </i>
    <i name="e_wo_entrp">   -107.95224351 </i>
    <i name="e_0_energy">   -107.95537034 </i>
   </energy>
  </scstep>
  <scstep>
   <time name="diag">    2.44    2.46</time>
   <time name="diis">    7.99    8.04</time>
   <time name="orth">    0.59    0.59</time>
   <time name="total">   11.71   11.79</time>
   <dipole>
    <v name="dipole">      0.00000000       0.00000000       0.32328352 </v>
    <i name="Tr[quadrupol]">  -4134.07493020 </i>
    <i name="Echarged">      0.00000000 </i>
    <i name="Edipol_quadrupol">      0.00000000 </i>
    <i name="Eion">      0.00000000 </i>
   </dipole>
   <energy>
    <i name="e_fr_energy">   -107.95611869 </i>
    <i name="e_wo_entrp">   -107.95137957 </i>
    <i name="e_0_energy">   -107.95493391 </i>
   </energy>
  </scstep>
  <scstep>
   <time name="diag">    2.44    2.46</time>
   <time name="diis">    7.79    7.85</time>
   <time name="orth">    0.59    0.59</time>
   <time name="total">   11.54   11.61</time>
   <dipole>
    <v name="dipole">      0.00000000       0.00000000       0.30339046 </v>
    <i name="Tr[quadrupol]">  -4134.24001485 </i>
    <i name="Echarged">      0.00000000 </i>
    <i name="Edipol_quadrupol">      0.00000000 </i>
    <i name="Eion">      0.00000000 </i>
   </dipole>
   <energy>
    <i name="e_fr_energy">   -107.95701368 </i>
    <i name="e_wo_entrp">   -107.95136968 </i>
    <i name="e_0_energy">   -107.95560268 </i>
   </energy>
  </scstep>
  <scstep>
   <time name="diag">    2.45    2.46</time>
   <time name="diis">    7.73    7.78</time>
   <time name="orth">    0.59    0.59</time>
   <time name="total">   11.48   11.55</time>
   <dipole>
    <v name="dipole">      0.00000000       0.00000000       0.29791303 </v>
    <i name="Tr[quadrupol]">  -4134.32761603 </i>
    <i name="Echarged">      0.00000000 </i>
    <i name="Edipol_quadrupol">      0.00000000 </i>
    <i name="Eion">      0.00000000 </i>
   </dipole>
   <energy>
    <i name="e_fr_energy">   -107.95759677 </i>
    <i name="e_wo_entrp">   -107.95179042 </i>
    <i name="e_0_energy">   -107.95614518 </i>
   </energy>
  </scstep>
  <scstep>
   <time name="diag">    2.44    2.45</time>
   <time name="diis">    6.87    6.91</time>
   <time name="orth">    0.59    0.60</time>
   <time name="total">   10.62   10.69</time>
   <dipole>
    <v name="dipole">      0.00000000       0.00000000       0.28183078 </v>
    <i name="Tr[quadrupol]">  -4134.79094633 </i>
    <i name="Echarged">      0.00000000 </i>
    <i name="Edipol_quadrupol">      0.00000000 </i>
    <i name="Eion">      0.00000000 </i>
   </dipole>
   <energy>
    <i name="e_fr_energy">   -107.95825659 </i>
    <i name="e_wo_entrp">   -107.95238777 </i>
    <i name="e_0_energy">   -107.95678938 </i>
   </energy>
  </scstep>
  <scstep>
   <time name="diag">    2.44    2.46</time>
   <time name="diis">    7.92    7.97</time>
   <time name="orth">    0.59    0.59</time>
   <time name="total">   11.67   11.75</time>
   <dipole>
    <v name="dipole">      0.00000000       0.00000000       0.29169874 </v>
    <i name="Tr[quadrupol]">  -4135.02354379 </i>
    <i name="Echarged">      0.00000000 </i>
    <i name="Edipol_quadrupol">      0.00000000 </i>
    <i name="Eion">      0.00000000 </i>
   </dipole>
   <energy>
    <i name="e_fr_energy">   -107.95885537 </i>
    <i name="e_wo_entrp">   -107.95323866 </i>
    <i name="e_0_energy">   -107.95745119 </i>
   </energy>
  </scstep>
  <scstep>
   <time name="diag">    2.44    2.46</time>
   <time name="diis">    5.12    5.15</time>
   <time name="orth">    0.59    0.60</time>
   <time name="total">    8.86    8.92</time>
   <dipole>
    <v name="dipole">      0.00000000       0.00000000       0.29122225 </v>
    <i name="Tr[quadrupol]">  -4134.83109301 </i>
    <i name="Echarged">      0.00000000 </i>
    <i name="Edipol_quadrupol">      0.00000000 </i>
    <i name="Eion">      0.00000000 </i>
   </dipole>
   <energy>
    <i name="e_fr_energy">   -107.95887073 </i>
    <i name="e_wo_entrp">   -107.95329580 </i>
    <i name="e_0_energy">   -107.95747700 </i>
   </energy>
  </scstep>
  <scstep>
   <time name="diag">    2.44    2.46</time>
   <time name="diis">    5.12    5.16</time>
   <time name="orth">    0.59    0.59</time>
   <time name="total">    8.88    8.94</time>
   <dipole>
    <v name="dipole">      0.00000000       0.00000000       0.28858835 </v>
    <i name="Tr[quadrupol]">  -4134.89596967 </i>
    <i name="Echarged">      0.00000000 </i>
    <i name="Edipol_quadrupol">      0.00000000 </i>
    <i name="Eion">      0.00000000 </i>
   </dipole>
   <energy>
    <i name="e_fr_energy">   -107.95889423 </i>
    <i name="e_wo_entrp">   -107.95325932 </i>
    <i name="e_0_energy">   -107.95748551 </i>
   </energy>
  </scstep>
  <scstep>
   <time name="diag">    2.44    2.46</time>
   <time name="diis">    5.22    5.25</time>
   <time name="orth">    0.59    0.59</time>
   <time name="total">    8.97    9.03</time>
   <dipole>
    <v name="dipole">      0.00000000       0.00000000       0.28802337 </v>
    <i name="Tr[quadrupol]">  -4134.85604038 </i>
    <i name="Echarged">      0.00000000 </i>
    <i name="Edipol_quadrupol">      0.00000000 </i>
    <i name="Eion">      0.00000000 </i>
   </dipole>
   <energy>
    <i name="e_fr_energy">   -107.95892901 </i>
    <i name="e_wo_entrp">   -107.95327396 </i>
    <i name="e_0_energy">   -107.95751524 </i>
   </energy>
  </scstep>
  <scstep>
   <time name="diag">    2.43    2.45</time>
   <time name="diis">    4.72    4.75</time>
   <time name="orth">    0.59    0.59</time>
   <time name="total">    8.45    8.51</time>
   <dipole>
    <v name="dipole">      0.00000000       0.00000000       0.28834195 </v>
    <i name="Tr[quadrupol]">  -4134.56438072 </i>
    <i name="Echarged">      0.00000000 </i>
    <i name="Edipol_quadrupol">      0.00000000 </i>
    <i name="Eion">      0.00000000 </i>
   </dipole>
   <energy>
    <i name="e_fr_energy">   -107.95894241 </i>
    <i name="e_wo_entrp">   -107.95330184 </i>
    <i name="e_0_energy">   -107.95753227 </i>
   </energy>
  </scstep>
  <scstep>
   <time name="diag">    2.44    2.46</time>
   <time name="diis">    4.86    4.89</time>
   <time name="orth">    0.59    0.60</time>
   <time name="total">    8.62    8.67</time>
   <dipole>
    <v name="dipole">      0.00000000       0.00000000       0.28862269 </v>
    <i name="Tr[quadrupol]">  -4134.42561387 </i>
    <i name="Echarged">      0.00000000 </i>
    <i name="Edipol_quadrupol">      0.00000000 </i>
    <i name="Eion">      0.00000000 </i>
   </dipole>
   <energy>
    <i name="e_fr_energy">   -107.95895712 </i>
    <i name="e_wo_entrp">   -107.95328183 </i>
    <i name="e_0_energy">   -107.95753830 </i>
   </energy>
  </scstep>
  <scstep>
   <time name="diag">    2.44    2.46</time>
   <time name="diis">    4.97    5.00</time>
   <time name="orth">    0.59    0.59</time>
   <time name="total">    8.08    8.13</time>
   <dipole>
    <v name="dipole">      0.00000000       0.00000000       0.28899581 </v>
    <i name="Tr[quadrupol]">  -4134.38041909 </i>
    <i name="Echarged">      0.00000000 </i>
    <i name="Edipol_quadrupol">      0.00000000 </i>
    <i name="Eion">      0.00000000 </i>
   </dipole>
   <energy>
    <i name="alphaZ">    740.56645538 </i>
    <i name="ewald"> 164226.44806453 </i>
    <i name="hartreedc">-211610.82484597 </i>
    <i name="XCdc">   1581.49670878 </i>
    <i name="pawpsdc">  46408.24488276 </i>
    <i name="pawaedc"> -50249.47704822 </i>
    <i name="eentropy">     -0.00567012 </i>
    <i name="bandstr">  -1242.33140985 </i>
    <i name="atom">  50037.92390023 </i>
    <i name="e_fr_energy">   -107.95896249 </i>
    <i name="e_wo_entrp">   -107.95329237 </i>
    <i name="e_0_energy">   -107.95754496 </i>
   </energy>
  </scstep>
  <structure>
   <crystal>
    <varray name="basis" >
     <v>       7.70037500       0.00000000       0.00000000 </v>
     <v>       0.00000000       7.70037500       0.00000000 </v>
     <v>       0.00000000       0.00000000      22.25999800 </v>
    </varray>
    <i name="volume">   1319.92383604 </i>
    <varray name="rec_basis" >
     <v>       0.12986381       0.00000000       0.00000000 </v>
     <v>       0.00000000       0.12986381       0.00000000 </v>
     <v>       0.00000000       0.00000000       0.04492363 </v>
    </varray>
   </crystal>
   <varray name="positions" >
    <v>       0.16666708       0.16666708       0.00000000 </v>
    <v>       0.50000110       0.16666708       0.00000000 </v>
    <v>       0.83333526       0.16666708       0.00000000 </v>
    <v>       0.16666708       0.50000110       0.00000000 </v>
    <v>       0.50000110       0.50000110       0.00000000 </v>
    <v>       0.83333526       0.50000110       0.00000000 </v>
    <v>       0.16666708       0.83333526       0.00000000 </v>
    <v>       0.50000110       0.83333526       0.00000000 </v>
    <v>       0.83333526       0.83333526       0.00000000 </v>
    <v>       0.00000000       0.00000000       0.08153640 </v>
    <v>       0.33333416       0.00000000       0.08153640 </v>
    <v>       0.66666818       0.00000000       0.08153640 </v>
    <v>       0.00000000       0.33333416       0.08153640 </v>
    <v>       0.33333416       0.33333416       0.08153640 </v>
    <v>       0.66666818       0.33333416       0.08153640 </v>
    <v>       0.00000000       0.66666818       0.08153640 </v>
    <v>       0.33333416       0.66666818       0.08153640 </v>
    <v>       0.66666818       0.66666818       0.08153640 </v>
    <v>       0.16749132       0.16755171       0.16633056 </v>
    <v>       0.50023135       0.16854569       0.16659426 </v>
    <v>       0.83382822       0.17046235       0.16772441 </v>
    <v>       0.16775183       0.49998007       0.16359364 </v>
    <v>       0.49814808       0.49989721       0.16238928 </v>
    <v>       0.83170417       0.50060588       0.16558160 </v>
    <v>       0.16698693       0.83269425       0.16625136 </v>
    <v>       0.49959450       0.83143159       0.16657733 </v>
    <v>       0.83341318       0.83126432       0.16761520 </v>
    <v>       0.00132513       0.00111748       0.24773960 </v>
    <v>       0.33395555       0.99946665       0.24757473 </v>
    <v>       0.66657143       0.00089502       0.24789836 </v>
    <v>       0.00244988       0.33616610       0.24967743 </v>
    <v>       0.33544626       0.33422567       0.25154063 </v>
    <v>       0.66548343       0.33587572       0.25168187 </v>
    <v>       0.00045024       0.66549733       0.24947307 </v>
    <v>       0.33368154       0.66454491       0.25157729 </v>
    <v>       0.66443608       0.66598536       0.25129167 </v>
   </varray>
  </structure>
  <varray name="forces" >
   <v>       0.00079117       0.00082005       0.01079443 </v>
   <v>      -0.00031734      -0.00041711       0.00985147 </v>
   <v>      -0.00079239       0.00057969       0.01521137 </v>
   <v>      -0.00159805      -0.00027228      -0.00151150 </v>
   <v>       0.00113724      -0.00020051      -0.00882588 </v>
   <v>      -0.00009385      -0.00009605       0.00359475 </v>
   <v>       0.00053807      -0.00103530       0.01037635 </v>
   <v>      -0.00010087       0.00010701       0.01002300 </v>
   <v>      -0.00093767      -0.00062924       0.01575362 </v>
   <v>      -0.03659908       0.00648937       0.09690588 </v>
   <v>       0.01401530       0.00166731       0.05315863 </v>
   <v>       0.02996332       0.00435397       0.11473911 </v>
   <v>      -0.03727223      -0.04543146      -0.00002617 </v>
   <v>      -0.01926319      -0.09883878      -0.09694331 </v>
   <v>       0.04978164      -0.06983959      -0.02782363 </v>
   <v>      -0.03952141       0.05151605      -0.00111759 </v>
   <v>      -0.02169741       0.09688094      -0.09676372 </v>
   <v>       0.04529162       0.07587937      -0.02714205 </v>
   <v>       0.00417592       0.03317722       0.06379513 </v>
   <v>       0.02256075      -0.01483608       0.05498491 </v>
   <v>      -0.02699510      -0.09071370      -0.07323006 </v>
   <v>      -0.05526946       0.00516447       0.45092161 </v>
   <v>       0.08158615       0.00354649       0.62346153 </v>
   <v>       0.01912181      -0.00280218       0.24040180 </v>
   <v>       0.00187229      -0.03597797       0.07508368 </v>
   <v>       0.02839527       0.01654063       0.05590785 </v>
   <v>      -0.02992377       0.08033959      -0.07303307 </v>
   <v>      -0.01159028      -0.01329671       0.01559205 </v>
   <v>       0.00203288       0.00050566       0.02689374 </v>
   <v>      -0.00001188      -0.00412118       0.00680192 </v>
   <v>      -0.01557468      -0.00836007      -0.17058354 </v>
   <v>      -0.03885465       0.01110789      -0.31795114 </v>
   <v>       0.04022194       0.00484626      -0.29897796 </v>
   <v>       0.00350082       0.01297167      -0.16204060 </v>
   <v>      -0.03057395      -0.00961436      -0.32725650 </v>
   <v>       0.02200105      -0.01001108      -0.27102612 </v>
  </varray>
  <varray name="stress" >
   <v>      -4.81611131      -0.01509499      -0.04604112 </v>
   <v>      -0.01509510      -4.78244239      -0.09743287 </v>
   <v>      -0.04604123      -0.09743260      -4.21756284 </v>
  </varray>
  <energy>
   <i name="e_fr_energy">   -107.95896249 </i>
   <i name="e_wo_entrp">   -107.95754496 </i>
   <i name="e_0_energy">     -0.00567012 </i>
  </energy>
  <time name="totalsc">  344.68  347.05</time>
  <eigenvalues>
   <array>
    <dimension dim="1">band</dimension>
    <dimension dim="2">kpoint</dimension>
    <dimension dim="3">spin</dimension>
    <field>eigene</field>
    <field>occ</field>
    <set>
     <set comment="spin 1">
      <set comment="kpoint 1">
       <r>   -8.8461    1.0000 </r>
       <r>   -7.2996    1.0000 </r>
       <r>   -7.0217    1.0000 </r>
       <r>   -7.0156    1.0000 </r>
       <r>   -6.0376    1.0000 </r>
       <r>   -6.0315    1.0000 </r>
       <r>   -5.7848    1.0000 </r>
       <r>   -5.7779    1.0000 </r>
       <r>   -5.5844    1.0000 </r>
       <r>   -5.4056    1.0000 </r>
       <r>   -5.2719    1.0000 </r>
       <r>   -5.2652    1.0000 </r>
       <r>   -5.0533    1.0000 </r>
       <r>   -5.0510    1.0000 </r>
       <r>   -4.9524    1.0000 </r>
       <r>   -4.8713    1.0000 </r>
       <r>   -4.6531    1.0000 </r>
       <r>   -4.6270    1.0000 </r>
       <r>   -4.6174    1.0000 </r>
       <r>   -4.5972    1.0000 </r>
       <r>   -4.5901    1.0000 </r>
       <r>   -4.5433    1.0000 </r>
       <r>   -4.4735    1.0000 </r>
       <r>   -4.4147    1.0000 </r>
       <r>   -4.4132    1.0000 </r>
       <r>   -4.3517    1.0000 </r>
       <r>   -4.3381    1.0000 </r>
       <r>   -4.3340    1.0000 </r>
       <r>   -4.2988    1.0000 </r>
       <r>   -4.2937    1.0000 </r>
       <r>   -4.2875    1.0000 </r>
       <r>   -4.2768    1.0000 </r>
       <r>   -4.2698    1.0000 </r>
       <r>   -4.2027    1.0000 </r>
       <r>   -4.1969    1.0000 </r>
       <r>   -4.1937    1.0000 </r>
       <r>   -4.1875    1.0000 </r>
       <r>   -4.1785    1.0000 </r>
       <r>   -4.0990    1.0000 </r>
       <r>   -4.0952    1.0000 </r>
       <r>   -4.0466    1.0000 </r>
       <r>   -4.0309    1.0000 </r>
       <r>   -4.0063    1.0000 </r>
       <r>   -3.9999    1.0000 </r>
       <r>   -3.9123    1.0000 </r>
       <r>   -3.8020    1.0000 </r>
       <r>   -3.7987    1.0000 </r>
       <r>   -3.7877    1.0000 </r>
       <r>   -3.7818    1.0000 </r>
       <r>   -3.7494    1.0000 </r>
       <r>   -3.7223    1.0000 </r>
       <r>   -3.7020    1.0000 </r>
       <r>   -3.6954    1.0000 </r>
       <r>   -3.6932    1.0000 </r>
       <r>   -3.6504    1.0000 </r>
       <r>   -3.5836    1.0000 </r>
       <r>   -3.5818    1.0000 </r>
       <r>   -3.5627    1.0000 </r>
       <r>   -3.5237    1.0000 </r>
       <r>   -3.5199    1.0000 </r>
       <r>   -3.5139    1.0000 </r>
       <r>   -3.4904    1.0000 </r>
       <r>   -3.4702    1.0000 </r>
       <r>   -3.4642    1.0000 </r>
       <r>   -3.4609    1.0000 </r>
       <r>   -3.4469    1.0000 </r>
       <r>   -3.4389    1.0000 </r>
       <r>   -3.4338    1.0000 </r>
       <r>   -3.3825    1.0000 </r>
       <r>   -3.3798    1.0000 </r>
       <r>   -3.3743    1.0000 </r>
       <r>   -3.2782    1.0000 </r>
       <r>   -3.2686    1.0000 </r>
       <r>   -3.2576    1.0000 </r>
       <r>   -3.2487    1.0000 </r>
       <r>   -3.2215    1.0000 </r>
       <r>   -3.2087    1.0000 </r>
       <r>   -3.2035    1.0000 </r>
       <r>   -3.1686    1.0000 </r>
       <r>   -3.1636    1.0000 </r>
       <r>   -3.1549    1.0000 </r>
       <r>   -3.1470    1.0000 </r>
       <r>   -3.1413    1.0000 </r>
       <r>   -3.1364    1.0000 </r>
       <r>   -3.1195    1.0000 </r>
       <r>   -3.1164    1.0000 </r>
       <r>   -3.1114    1.0000 </r>
       <r>   -3.1067    1.0000 </r>
       <r>   -3.1034    1.0000 </r>
       <r>   -3.0928    1.0000 </r>
       <r>   -3.0838    1.0000 </r>
       <r>   -3.0746    1.0000 </r>
       <r>   -3.0666    1.0000 </r>
       <r>   -3.0532    1.0000 </r>
       <r>   -3.0369    1.0000 </r>
       <r>   -3.0329    1.0000 </r>
       <r>   -2.9875    1.0000 </r>
       <r>   -2.9835    1.0000 </r>
       <r>   -2.9367    1.0000 </r>
       <r>   -2.8874    1.0000 </r>
       <r>   -2.8847    1.0000 </r>
       <r>   -2.8500    1.0000 </r>
       <r>   -2.8432    1.0000 </r>
       <r>   -2.7397    1.0000 </r>
       <r>   -2.7297    1.0000 </r>
       <r>   -2.7235    1.0000 </r>
       <r>   -2.7206    1.0000 </r>
       <r>   -2.6908    1.0000 </r>
       <r>   -2.6847    1.0000 </r>
       <r>   -2.6729    1.0000 </r>
       <r>   -2.6679    1.0000 </r>
       <r>   -2.6535    1.0000 </r>
       <r>   -2.6305    1.0000 </r>
       <r>   -2.6273    1.0000 </r>
       <r>   -2.6217    1.0000 </r>
       <r>   -2.6172    1.0000 </r>
       <r>   -2.5917    1.0000 </r>
       <r>   -2.5893    1.0000 </r>
       <r>   -2.5867    1.0000 </r>
       <r>   -2.5825    1.0000 </r>
       <r>   -2.5694    1.0000 </r>
       <r>   -2.5646    1.0000 </r>
       <r>   -2.5433    1.0000 </r>
       <r>   -2.5227    1.0000 </r>
       <r>   -2.5174    1.0000 </r>
       <r>   -2.5141    1.0000 </r>
       <r>   -2.5109    1.0000 </r>
       <r>   -2.4971    1.0000 </r>
       <r>   -2.4955    1.0000 </r>
       <r>   -2.4917    1.0000 </r>
       <r>   -2.4874    1.0000 </r>
       <r>   -2.4832    1.0000 </r>
       <r>   -2.4789    1.0000 </r>
       <r>   -2.4769    1.0000 </r>
       <r>   -2.4601    1.0000 </r>
       <r>   -2.4572    1.0000 </r>
       <r>   -2.4158    1.0000 </r>
       <r>   -2.3989    1.0000 </r>
       <r>   -2.3667    1.0000 </r>
       <r>   -2.3407    1.0000 </r>
       <r>   -2.3327    1.0000 </r>
       <r>   -2.3270    1.0000 </r>
       <r>   -2.3086    1.0000 </r>
       <r>   -2.2964    1.0000 </r>
       <r>   -2.2933    1.0000 </r>
       <r>   -2.2929    1.0000 </r>
       <r>   -2.2925    1.0000 </r>
       <r>   -2.2886    1.0000 </r>
       <r>   -2.2856    1.0000 </r>
       <r>   -2.2725    1.0000 </r>
       <r>   -2.2474    1.0000 </r>
       <r>   -2.2455    1.0000 </r>
       <r>   -2.1984    1.0000 </r>
       <r>   -2.1672    1.0000 </r>
       <r>   -2.1653    1.0000 </r>
       <r>   -2.1565    1.0000 </r>
       <r>   -2.1546    1.0000 </r>
       <r>   -2.1451    1.0000 </r>
       <r>   -2.1415    1.0000 </r>
       <r>   -2.1314    1.0000 </r>
       <r>   -2.1244    1.0000 </r>
       <r>   -2.1225    1.0000 </r>
       <r>   -2.1209    1.0000 </r>
       <r>   -2.1193    1.0000 </r>
       <r>   -2.1175    1.0000 </r>
       <r>   -2.1094    1.0000 </r>
       <r>   -2.1067    1.0000 </r>
       <r>   -2.1051    1.0000 </r>
       <r>   -2.0802    1.0000 </r>
       <r>   -2.0782    1.0000 </r>
       <r>   -2.0428    1.0000 </r>
       <r>   -2.0400    1.0000 </r>
       <r>   -2.0383    1.0000 </r>
       <r>   -2.0332    1.0000 </r>
       <r>   -2.0305    1.0000 </r>
       <r>   -1.9936    1.0000 </r>
       <r>   -1.9589    1.0000 </r>
       <r>   -1.9574    1.0000 </r>
       <r>   -1.9545    1.0000 </r>
       <r>   -1.9511    1.0000 </r>
       <r>   -1.9479    1.0000 </r>
       <r>   -1.9422    1.0000 </r>
       <r>   -1.9384    1.0000 </r>
       <r>   -1.9251    1.0000 </r>
       <r>   -1.9046    1.0000 </r>
       <r>   -1.8995    1.0000 </r>
       <r>   -1.8958    1.0000 </r>
       <r>   -1.8948    1.0000 </r>
       <r>   -1.8844    1.0000 </r>
       <r>   -1.8804    1.0000 </r>
       <r>   -1.8739    1.0000 </r>
       <r>   -1.8318    1.0000 </r>
       <r>   -1.4123    1.0000 </r>
       <r>   -1.4090    1.0000 </r>
       <r>   -1.1533    1.0000 </r>
       <r>   -1.1518    1.0000 </r>
       <r>   -1.0738    0.9999 </r>
       <r>   -0.7949    0.9970 </r>
       <r>   -0.6879    1.0309 </r>
       <r>   -0.4603    0.6397 </r>
       <r>   -0.4562    0.6190 </r>
       <r>   -0.1872   -0.0348 </r>
       <r>   -0.1813   -0.0320 </r>
       <r>    0.6738    0.0000 </r>
       <r>    0.7518    0.0000 </r>
       <r>    0.8601    0.0000 </r>
       <r>    1.2422    0.0000 </r>
       <r>    1.2481    0.0000 </r>
       <r>    1.6836    0.0000 </r>
       <r>    1.6854    0.0000 </r>
       <r>    1.7839    0.0000 </r>
       <r>    1.7956    0.0000 </r>
       <r>    2.9999    0.0000 </r>
       <r>    3.0643    0.0000 </r>
       <r>    3.0683    0.0000 </r>
       <r>    3.2001    0.0000 </r>
       <r>    3.4026    0.0000 </r>
       <r>    3.4085    0.0000 </r>
       <r>    3.5233    0.0000 </r>
       <r>    3.5434    0.0000 </r>
       <r>    3.5853    0.0000 </r>
       <r>    3.5907    0.0000 </r>
       <r>    3.7162    0.0000 </r>
       <r>    3.7193    0.0000 </r>
       <r>    3.9674    0.0000 </r>
       <r>    4.4374    0.0000 </r>
       <r>    4.4388    0.0000 </r>
       <r>    4.7415    0.0000 </r>
       <r>    4.7445    0.0000 </r>
       <r>    4.9170    0.0000 </r>
       <r>    5.0947    0.0000 </r>
       <r>    5.0996    0.0000 </r>
       <r>    5.2356    0.0000 </r>
       <r>    5.2388    0.0000 </r>
       <r>    5.3912    0.0000 </r>
       <r>    5.4076    0.0000 </r>
       <r>    5.4353    0.0000 </r>
       <r>    5.4383    0.0000 </r>
       <r>    5.5144    0.0000 </r>
       <r>    5.6900    0.0000 </r>
      </set>
      <set comment="kpoint 2">
       <r>   -8.5216    1.0000 </r>
       <r>   -7.8935    1.0000 </r>
       <r>   -6.9998    1.0000 </r>
       <r>   -6.7333    1.0000 </r>
       <r>   -6.4479    1.0000 </r>
       <r>   -6.2125    1.0000 </r>
       <r>   -5.7949    1.0000 </r>
       <r>   -5.5277    1.0000 </r>
       <r>   -5.4037    1.0000 </r>
       <r>   -5.2609    1.0000 </r>
       <r>   -5.1662    1.0000 </r>
       <r>   -5.0951    1.0000 </r>
       <r>   -5.0682    1.0000 </r>
       <r>   -5.0579    1.0000 </r>
       <r>   -4.8155    1.0000 </r>
       <r>   -4.7880    1.0000 </r>
       <r>   -4.7819    1.0000 </r>
       <r>   -4.7251    1.0000 </r>
       <r>   -4.7176    1.0000 </r>
       <r>   -4.6783    1.0000 </r>
       <r>   -4.5655    1.0000 </r>
       <r>   -4.5209    1.0000 </r>
       <r>   -4.5073    1.0000 </r>
       <r>   -4.4764    1.0000 </r>
       <r>   -4.4349    1.0000 </r>
       <r>   -4.4117    1.0000 </r>
       <r>   -4.3918    1.0000 </r>
       <r>   -4.3794    1.0000 </r>
       <r>   -4.3735    1.0000 </r>
       <r>   -4.3443    1.0000 </r>
       <r>   -4.3205    1.0000 </r>
       <r>   -4.3099    1.0000 </r>
       <r>   -4.2298    1.0000 </r>
       <r>   -4.2200    1.0000 </r>
       <r>   -4.1424    1.0000 </r>
       <r>   -4.1312    1.0000 </r>
       <r>   -4.1075    1.0000 </r>
       <r>   -4.1040    1.0000 </r>
       <r>   -4.0430    1.0000 </r>
       <r>   -4.0370    1.0000 </r>
       <r>   -4.0159    1.0000 </r>
       <r>   -3.9925    1.0000 </r>
       <r>   -3.9746    1.0000 </r>
       <r>   -3.9184    1.0000 </r>
       <r>   -3.9129    1.0000 </r>
       <r>   -3.9042    1.0000 </r>
       <r>   -3.8530    1.0000 </r>
       <r>   -3.8126    1.0000 </r>
       <r>   -3.8083    1.0000 </r>
       <r>   -3.7839    1.0000 </r>
       <r>   -3.7788    1.0000 </r>
       <r>   -3.7218    1.0000 </r>
       <r>   -3.6839    1.0000 </r>
       <r>   -3.6606    1.0000 </r>
       <r>   -3.6490    1.0000 </r>
       <r>   -3.6345    1.0000 </r>
       <r>   -3.6197    1.0000 </r>
       <r>   -3.6065    1.0000 </r>
       <r>   -3.5711    1.0000 </r>
       <r>   -3.5613    1.0000 </r>
       <r>   -3.5410    1.0000 </r>
       <r>   -3.5367    1.0000 </r>
       <r>   -3.5227    1.0000 </r>
       <r>   -3.5220    1.0000 </r>
       <r>   -3.4997    1.0000 </r>
       <r>   -3.4933    1.0000 </r>
       <r>   -3.4741    1.0000 </r>
       <r>   -3.4086    1.0000 </r>
       <r>   -3.3682    1.0000 </r>
       <r>   -3.3417    1.0000 </r>
       <r>   -3.3248    1.0000 </r>
       <r>   -3.3220    1.0000 </r>
       <r>   -3.3068    1.0000 </r>
       <r>   -3.2911    1.0000 </r>
       <r>   -3.2457    1.0000 </r>
       <r>   -3.2223    1.0000 </r>
       <r>   -3.2001    1.0000 </r>
       <r>   -3.1973    1.0000 </r>
       <r>   -3.1864    1.0000 </r>
       <r>   -3.1814    1.0000 </r>
       <r>   -3.1746    1.0000 </r>
       <r>   -3.1691    1.0000 </r>
       <r>   -3.1625    1.0000 </r>
       <r>   -3.1521    1.0000 </r>
       <r>   -3.1426    1.0000 </r>
       <r>   -3.1259    1.0000 </r>
       <r>   -3.1166    1.0000 </r>
       <r>   -3.1106    1.0000 </r>
       <r>   -3.0881    1.0000 </r>
       <r>   -3.0822    1.0000 </r>
       <r>   -3.0744    1.0000 </r>
       <r>   -3.0625    1.0000 </r>
       <r>   -3.0471    1.0000 </r>
       <r>   -3.0138    1.0000 </r>
       <r>   -3.0054    1.0000 </r>
       <r>   -2.9763    1.0000 </r>
       <r>   -2.9561    1.0000 </r>
       <r>   -2.9489    1.0000 </r>
       <r>   -2.8920    1.0000 </r>
       <r>   -2.8834    1.0000 </r>
       <r>   -2.8439    1.0000 </r>
       <r>   -2.8402    1.0000 </r>
       <r>   -2.8289    1.0000 </r>
       <r>   -2.8263    1.0000 </r>
       <r>   -2.8189    1.0000 </r>
       <r>   -2.8173    1.0000 </r>
       <r>   -2.7974    1.0000 </r>
       <r>   -2.7904    1.0000 </r>
       <r>   -2.7819    1.0000 </r>
       <r>   -2.7609    1.0000 </r>
       <r>   -2.7462    1.0000 </r>
       <r>   -2.7341    1.0000 </r>
       <r>   -2.7102    1.0000 </r>
       <r>   -2.7055    1.0000 </r>
       <r>   -2.6841    1.0000 </r>
       <r>   -2.6775    1.0000 </r>
       <r>   -2.6742    1.0000 </r>
       <r>   -2.6710    1.0000 </r>
       <r>   -2.6523    1.0000 </r>
       <r>   -2.6400    1.0000 </r>
       <r>   -2.6250    1.0000 </r>
       <r>   -2.6206    1.0000 </r>
       <r>   -2.5963    1.0000 </r>
       <r>   -2.5914    1.0000 </r>
       <r>   -2.5816    1.0000 </r>
       <r>   -2.5253    1.0000 </r>
       <r>   -2.4997    1.0000 </r>
       <r>   -2.4777    1.0000 </r>
       <r>   -2.4736    1.0000 </r>
       <r>   -2.4677    1.0000 </r>
       <r>   -2.4498    1.0000 </r>
       <r>   -2.4431    1.0000 </r>
       <r>   -2.4244    1.0000 </r>
       <r>   -2.4127    1.0000 </r>
       <r>   -2.4084    1.0000 </r>
       <r>   -2.4060    1.0000 </r>
       <r>   -2.3980    1.0000 </r>
       <r>   -2.3904    1.0000 </r>
       <r>   -2.3727    1.0000 </r>
       <r>   -2.3635    1.0000 </r>
       <r>   -2.3583    1.0000 </r>
       <r>   -2.3567    1.0000 </r>
       <r>   -2.3463    1.0000 </r>
       <r>   -2.3429    1.0000 </r>
       <r>   -2.3275    1.0000 </r>
       <r>   -2.3176    1.0000 </r>
       <r>   -2.2986    1.0000 </r>
       <r>   -2.2925    1.0000 </r>
       <r>   -2.2623    1.0000 </r>
       <r>   -2.2573    1.0000 </r>
       <r>   -2.2507    1.0000 </r>
       <r>   -2.2204    1.0000 </r>
       <r>   -2.2028    1.0000 </r>
       <r>   -2.1982    1.0000 </r>
       <r>   -2.1874    1.0000 </r>
       <r>   -2.1839    1.0000 </r>
       <r>   -2.1502    1.0000 </r>
       <r>   -2.1450    1.0000 </r>
       <r>   -2.1256    1.0000 </r>
       <r>   -2.1211    1.0000 </r>
       <r>   -2.1188    1.0000 </r>
       <r>   -2.1106    1.0000 </r>
       <r>   -2.1035    1.0000 </r>
       <r>   -2.1001    1.0000 </r>
       <r>   -2.0944    1.0000 </r>
       <r>   -2.0809    1.0000 </r>
       <r>   -2.0618    1.0000 </r>
       <r>   -2.0605    1.0000 </r>
       <r>   -2.0587    1.0000 </r>
       <r>   -2.0576    1.0000 </r>
       <r>   -2.0475    1.0000 </r>
       <r>   -2.0380    1.0000 </r>
       <r>   -2.0343    1.0000 </r>
       <r>   -2.0289    1.0000 </r>
       <r>   -2.0141    1.0000 </r>
       <r>   -1.9939    1.0000 </r>
       <r>   -1.9749    1.0000 </r>
       <r>   -1.9676    1.0000 </r>
       <r>   -1.9540    1.0000 </r>
       <r>   -1.9505    1.0000 </r>
       <r>   -1.9409    1.0000 </r>
       <r>   -1.9106    1.0000 </r>
       <r>   -1.9011    1.0000 </r>
       <r>   -1.8973    1.0000 </r>
       <r>   -1.8825    1.0000 </r>
       <r>   -1.8589    1.0000 </r>
       <r>   -1.8056    1.0000 </r>
       <r>   -1.7715    1.0000 </r>
       <r>   -1.7396    1.0000 </r>
       <r>   -1.6841    1.0000 </r>
       <r>   -1.6440    1.0000 </r>
       <r>   -1.5775    1.0000 </r>
       <r>   -1.5078    1.0000 </r>
       <r>   -1.1554    1.0000 </r>
       <r>   -1.0644    0.9999 </r>
       <r>   -0.9311    0.9978 </r>
       <r>   -0.7595    1.0030 </r>
       <r>   -0.3315    0.0558 </r>
       <r>   -0.1531   -0.0188 </r>
       <r>   -0.1434   -0.0147 </r>
       <r>   -0.0647    0.0037 </r>
       <r>    0.0374    0.0031 </r>
       <r>    0.1802    0.0002 </r>
       <r>    0.3788    0.0000 </r>
       <r>    0.6112    0.0000 </r>
       <r>    0.8104    0.0000 </r>
       <r>    1.1869    0.0000 </r>
       <r>    1.3303    0.0000 </r>
       <r>    1.6020    0.0000 </r>
       <r>    1.6143    0.0000 </r>
       <r>    2.1017    0.0000 </r>
       <r>    2.1957    0.0000 </r>
       <r>    2.2467    0.0000 </r>
       <r>    2.2906    0.0000 </r>
       <r>    2.3023    0.0000 </r>
       <r>    2.6281    0.0000 </r>
       <r>    2.7463    0.0000 </r>
       <r>    2.8283    0.0000 </r>
       <r>    3.2769    0.0000 </r>
       <r>    3.2856    0.0000 </r>
       <r>    3.6898    0.0000 </r>
       <r>    3.7223    0.0000 </r>
       <r>    3.7782    0.0000 </r>
       <r>    3.8405    0.0000 </r>
       <r>    3.9298    0.0000 </r>
       <r>    4.0096    0.0000 </r>
       <r>    4.2817    0.0000 </r>
       <r>    4.4699    0.0000 </r>
       <r>    4.4864    0.0000 </r>
       <r>    4.5613    0.0000 </r>
       <r>    4.5739    0.0000 </r>
       <r>    4.8772    0.0000 </r>
       <r>    4.9092    0.0000 </r>
       <r>    5.0312    0.0000 </r>
       <r>    5.0961    0.0000 </r>
       <r>    5.2453    0.0000 </r>
       <r>    5.3802    0.0000 </r>
       <r>    5.5003    0.0000 </r>
       <r>    5.7421    0.0000 </r>
       <r>    5.9177    0.0000 </r>
      </set>
      <set comment="kpoint 3">
       <r>   -8.5216    1.0000 </r>
       <r>   -7.8935    1.0000 </r>
       <r>   -6.9998    1.0000 </r>
       <r>   -6.7333    1.0000 </r>
       <r>   -6.4479    1.0000 </r>
       <r>   -6.2125    1.0000 </r>
       <r>   -5.7949    1.0000 </r>
       <r>   -5.5277    1.0000 </r>
       <r>   -5.4037    1.0000 </r>
       <r>   -5.2610    1.0000 </r>
       <r>   -5.1662    1.0000 </r>
       <r>   -5.0950    1.0000 </r>
       <r>   -5.0685    1.0000 </r>
       <r>   -5.0575    1.0000 </r>
       <r>   -4.8154    1.0000 </r>
       <r>   -4.7879    1.0000 </r>
       <r>   -4.7820    1.0000 </r>
       <r>   -4.7249    1.0000 </r>
       <r>   -4.7173    1.0000 </r>
       <r>   -4.6789    1.0000 </r>
       <r>   -4.5655    1.0000 </r>
       <r>   -4.5208    1.0000 </r>
       <r>   -4.5073    1.0000 </r>
       <r>   -4.4764    1.0000 </r>
       <r>   -4.4349    1.0000 </r>
       <r>   -4.4120    1.0000 </r>
       <r>   -4.3918    1.0000 </r>
       <r>   -4.3795    1.0000 </r>
       <r>   -4.3732    1.0000 </r>
       <r>   -4.3446    1.0000 </r>
       <r>   -4.3207    1.0000 </r>
       <r>   -4.3096    1.0000 </r>
       <r>   -4.2303    1.0000 </r>
       <r>   -4.2195    1.0000 </r>
       <r>   -4.1425    1.0000 </r>
       <r>   -4.1313    1.0000 </r>
       <r>   -4.1075    1.0000 </r>
       <r>   -4.1038    1.0000 </r>
       <r>   -4.0434    1.0000 </r>
       <r>   -4.0373    1.0000 </r>
       <r>   -4.0157    1.0000 </r>
       <r>   -3.9919    1.0000 </r>
       <r>   -3.9748    1.0000 </r>
       <r>   -3.9184    1.0000 </r>
       <r>   -3.9128    1.0000 </r>
       <r>   -3.9042    1.0000 </r>
       <r>   -3.8532    1.0000 </r>
       <r>   -3.8128    1.0000 </r>
       <r>   -3.8084    1.0000 </r>
       <r>   -3.7836    1.0000 </r>
       <r>   -3.7786    1.0000 </r>
       <r>   -3.7221    1.0000 </r>
       <r>   -3.6844    1.0000 </r>
       <r>   -3.6605    1.0000 </r>
       <r>   -3.6489    1.0000 </r>
       <r>   -3.6346    1.0000 </r>
       <r>   -3.6195    1.0000 </r>
       <r>   -3.6064    1.0000 </r>
       <r>   -3.5713    1.0000 </r>
       <r>   -3.5614    1.0000 </r>
       <r>   -3.5409    1.0000 </r>
       <r>   -3.5361    1.0000 </r>
       <r>   -3.5231    1.0000 </r>
       <r>   -3.5222    1.0000 </r>
       <r>   -3.4996    1.0000 </r>
       <r>   -3.4934    1.0000 </r>
       <r>   -3.4738    1.0000 </r>
       <r>   -3.4083    1.0000 </r>
       <r>   -3.3681    1.0000 </r>
       <r>   -3.3415    1.0000 </r>
       <r>   -3.3249    1.0000 </r>
       <r>   -3.3221    1.0000 </r>
       <r>   -3.3069    1.0000 </r>
       <r>   -3.2910    1.0000 </r>
       <r>   -3.2460    1.0000 </r>
       <r>   -3.2222    1.0000 </r>
       <r>   -3.2006    1.0000 </r>
       <r>   -3.1972    1.0000 </r>
       <r>   -3.1850    1.0000 </r>
       <r>   -3.1817    1.0000 </r>
       <r>   -3.1756    1.0000 </r>
       <r>   -3.1698    1.0000 </r>
       <r>   -3.1639    1.0000 </r>
       <r>   -3.1511    1.0000 </r>
       <r>   -3.1420    1.0000 </r>
       <r>   -3.1255    1.0000 </r>
       <r>   -3.1162    1.0000 </r>
       <r>   -3.1109    1.0000 </r>
       <r>   -3.0888    1.0000 </r>
       <r>   -3.0818    1.0000 </r>
       <r>   -3.0739    1.0000 </r>
       <r>   -3.0626    1.0000 </r>
       <r>   -3.0474    1.0000 </r>
       <r>   -3.0141    1.0000 </r>
       <r>   -3.0056    1.0000 </r>
       <r>   -2.9762    1.0000 </r>
       <r>   -2.9561    1.0000 </r>
       <r>   -2.9485    1.0000 </r>
       <r>   -2.8921    1.0000 </r>
       <r>   -2.8836    1.0000 </r>
       <r>   -2.8443    1.0000 </r>
       <r>   -2.8400    1.0000 </r>
       <r>   -2.8278    1.0000 </r>
       <r>   -2.8264    1.0000 </r>
       <r>   -2.8187    1.0000 </r>
       <r>   -2.8182    1.0000 </r>
       <r>   -2.7979    1.0000 </r>
       <r>   -2.7888    1.0000 </r>
       <r>   -2.7817    1.0000 </r>
       <r>   -2.7613    1.0000 </r>
       <r>   -2.7470    1.0000 </r>
       <r>   -2.7339    1.0000 </r>
       <r>   -2.7108    1.0000 </r>
       <r>   -2.7057    1.0000 </r>
       <r>   -2.6840    1.0000 </r>
       <r>   -2.6777    1.0000 </r>
       <r>   -2.6746    1.0000 </r>
       <r>   -2.6700    1.0000 </r>
       <r>   -2.6528    1.0000 </r>
       <r>   -2.6399    1.0000 </r>
       <r>   -2.6252    1.0000 </r>
       <r>   -2.6198    1.0000 </r>
       <r>   -2.5966    1.0000 </r>
       <r>   -2.5910    1.0000 </r>
       <r>   -2.5817    1.0000 </r>
       <r>   -2.5254    1.0000 </r>
       <r>   -2.4998    1.0000 </r>
       <r>   -2.4778    1.0000 </r>
       <r>   -2.4736    1.0000 </r>
       <r>   -2.4678    1.0000 </r>
       <r>   -2.4494    1.0000 </r>
       <r>   -2.4419    1.0000 </r>
       <r>   -2.4253    1.0000 </r>
       <r>   -2.4119    1.0000 </r>
       <r>   -2.4079    1.0000 </r>
       <r>   -2.4056    1.0000 </r>
       <r>   -2.3981    1.0000 </r>
       <r>   -2.3913    1.0000 </r>
       <r>   -2.3739    1.0000 </r>
       <r>   -2.3638    1.0000 </r>
       <r>   -2.3577    1.0000 </r>
       <r>   -2.3559    1.0000 </r>
       <r>   -2.3471    1.0000 </r>
       <r>   -2.3434    1.0000 </r>
       <r>   -2.3276    1.0000 </r>
       <r>   -2.3172    1.0000 </r>
       <r>   -2.2985    1.0000 </r>
       <r>   -2.2928    1.0000 </r>
       <r>   -2.2618    1.0000 </r>
       <r>   -2.2568    1.0000 </r>
       <r>   -2.2508    1.0000 </r>
       <r>   -2.2207    1.0000 </r>
       <r>   -2.2032    1.0000 </r>
       <r>   -2.1982    1.0000 </r>
       <r>   -2.1871    1.0000 </r>
       <r>   -2.1838    1.0000 </r>
       <r>   -2.1505    1.0000 </r>
       <r>   -2.1449    1.0000 </r>
       <r>   -2.1254    1.0000 </r>
       <r>   -2.1211    1.0000 </r>
       <r>   -2.1193    1.0000 </r>
       <r>   -2.1107    1.0000 </r>
       <r>   -2.1037    1.0000 </r>
       <r>   -2.1000    1.0000 </r>
       <r>   -2.0940    1.0000 </r>
       <r>   -2.0814    1.0000 </r>
       <r>   -2.0615    1.0000 </r>
       <r>   -2.0607    1.0000 </r>
       <r>   -2.0584    1.0000 </r>
       <r>   -2.0576    1.0000 </r>
       <r>   -2.0475    1.0000 </r>
       <r>   -2.0379    1.0000 </r>
       <r>   -2.0342    1.0000 </r>
       <r>   -2.0292    1.0000 </r>
       <r>   -2.0139    1.0000 </r>
       <r>   -1.9938    1.0000 </r>
       <r>   -1.9750    1.0000 </r>
       <r>   -1.9679    1.0000 </r>
       <r>   -1.9538    1.0000 </r>
       <r>   -1.9504    1.0000 </r>
       <r>   -1.9412    1.0000 </r>
       <r>   -1.9107    1.0000 </r>
       <r>   -1.9008    1.0000 </r>
       <r>   -1.8976    1.0000 </r>
       <r>   -1.8827    1.0000 </r>
       <r>   -1.8578    1.0000 </r>
       <r>   -1.8061    1.0000 </r>
       <r>   -1.7715    1.0000 </r>
       <r>   -1.7395    1.0000 </r>
       <r>   -1.6840    1.0000 </r>
       <r>   -1.6441    1.0000 </r>
       <r>   -1.5775    1.0000 </r>
       <r>   -1.5078    1.0000 </r>
       <r>   -1.1554    1.0000 </r>
       <r>   -1.0644    0.9999 </r>
       <r>   -0.9311    0.9978 </r>
       <r>   -0.7595    1.0030 </r>
       <r>   -0.3315    0.0557 </r>
       <r>   -0.1526   -0.0186 </r>
       <r>   -0.1436   -0.0148 </r>
       <r>   -0.0650    0.0037 </r>
       <r>    0.0374    0.0031 </r>
       <r>    0.1802    0.0002 </r>
       <r>    0.3788    0.0000 </r>
       <r>    0.6113    0.0000 </r>
       <r>    0.8104    0.0000 </r>
       <r>    1.1865    0.0000 </r>
       <r>    1.3304    0.0000 </r>
       <r>    1.6025    0.0000 </r>
       <r>    1.6143    0.0000 </r>
       <r>    2.1017    0.0000 </r>
       <r>    2.1959    0.0000 </r>
       <r>    2.2468    0.0000 </r>
       <r>    2.2907    0.0000 </r>
       <r>    2.3018    0.0000 </r>
       <r>    2.6299    0.0000 </r>
       <r>    2.7438    0.0000 </r>
       <r>    2.8284    0.0000 </r>
       <r>    3.2763    0.0000 </r>
       <r>    3.2863    0.0000 </r>
       <r>    3.6899    0.0000 </r>
       <r>    3.7224    0.0000 </r>
       <r>    3.7781    0.0000 </r>
       <r>    3.8405    0.0000 </r>
       <r>    3.9306    0.0000 </r>
       <r>    4.0093    0.0000 </r>
       <r>    4.2817    0.0000 </r>
       <r>    4.4700    0.0000 </r>
       <r>    4.4864    0.0000 </r>
       <r>    4.5608    0.0000 </r>
       <r>    4.5739    0.0000 </r>
       <r>    4.8768    0.0000 </r>
       <r>    4.9093    0.0000 </r>
       <r>    5.0310    0.0000 </r>
       <r>    5.0970    0.0000 </r>
       <r>    5.2454    0.0000 </r>
       <r>    5.3805    0.0000 </r>
       <r>    5.5012    0.0000 </r>
       <r>    5.7431    0.0000 </r>
       <r>    5.9169    0.0000 </r>
      </set>
      <set comment="kpoint 4">
       <r>   -8.8461    1.0000 </r>
       <r>   -7.2996    1.0000 </r>
       <r>   -7.0211    1.0000 </r>
       <r>   -7.0162    1.0000 </r>
       <r>   -6.0371    1.0000 </r>
       <r>   -6.0320    1.0000 </r>
       <r>   -5.7857    1.0000 </r>
       <r>   -5.7770    1.0000 </r>
       <r>   -5.5843    1.0000 </r>
       <r>   -5.4056    1.0000 </r>
       <r>   -5.2725    1.0000 </r>
       <r>   -5.2645    1.0000 </r>
       <r>   -5.0530    1.0000 </r>
       <r>   -5.0514    1.0000 </r>
       <r>   -4.9524    1.0000 </r>
       <r>   -4.8713    1.0000 </r>
       <r>   -4.6532    1.0000 </r>
       <r>   -4.6270    1.0000 </r>
       <r>   -4.6173    1.0000 </r>
       <r>   -4.5972    1.0000 </r>
       <r>   -4.5902    1.0000 </r>
       <r>   -4.5435    1.0000 </r>
       <r>   -4.4735    1.0000 </r>
       <r>   -4.4149    1.0000 </r>
       <r>   -4.4132    1.0000 </r>
       <r>   -4.3517    1.0000 </r>
       <r>   -4.3380    1.0000 </r>
       <r>   -4.3343    1.0000 </r>
       <r>   -4.2982    1.0000 </r>
       <r>   -4.2930    1.0000 </r>
       <r>   -4.2874    1.0000 </r>
       <r>   -4.2769    1.0000 </r>
       <r>   -4.2705    1.0000 </r>
       <r>   -4.2034    1.0000 </r>
       <r>   -4.1971    1.0000 </r>
       <r>   -4.1933    1.0000 </r>
       <r>   -4.1872    1.0000 </r>
       <r>   -4.1786    1.0000 </r>
       <r>   -4.0990    1.0000 </r>
       <r>   -4.0954    1.0000 </r>
       <r>   -4.0463    1.0000 </r>
       <r>   -4.0310    1.0000 </r>
       <r>   -4.0063    1.0000 </r>
       <r>   -4.0000    1.0000 </r>
       <r>   -3.9122    1.0000 </r>
       <r>   -3.8016    1.0000 </r>
       <r>   -3.7991    1.0000 </r>
       <r>   -3.7881    1.0000 </r>
       <r>   -3.7813    1.0000 </r>
       <r>   -3.7492    1.0000 </r>
       <r>   -3.7220    1.0000 </r>
       <r>   -3.7027    1.0000 </r>
       <r>   -3.6954    1.0000 </r>
       <r>   -3.6933    1.0000 </r>
       <r>   -3.6504    1.0000 </r>
       <r>   -3.5839    1.0000 </r>
       <r>   -3.5813    1.0000 </r>
       <r>   -3.5626    1.0000 </r>
       <r>   -3.5241    1.0000 </r>
       <r>   -3.5194    1.0000 </r>
       <r>   -3.5147    1.0000 </r>
       <r>   -3.4899    1.0000 </r>
       <r>   -3.4704    1.0000 </r>
       <r>   -3.4642    1.0000 </r>
       <r>   -3.4612    1.0000 </r>
       <r>   -3.4467    1.0000 </r>
       <r>   -3.4387    1.0000 </r>
       <r>   -3.4336    1.0000 </r>
       <r>   -3.3825    1.0000 </r>
       <r>   -3.3798    1.0000 </r>
       <r>   -3.3743    1.0000 </r>
       <r>   -3.2780    1.0000 </r>
       <r>   -3.2686    1.0000 </r>
       <r>   -3.2565    1.0000 </r>
       <r>   -3.2499    1.0000 </r>
       <r>   -3.2217    1.0000 </r>
       <r>   -3.2091    1.0000 </r>
       <r>   -3.2031    1.0000 </r>
       <r>   -3.1688    1.0000 </r>
       <r>   -3.1624    1.0000 </r>
       <r>   -3.1563    1.0000 </r>
       <r>   -3.1457    1.0000 </r>
       <r>   -3.1423    1.0000 </r>
       <r>   -3.1361    1.0000 </r>
       <r>   -3.1199    1.0000 </r>
       <r>   -3.1160    1.0000 </r>
       <r>   -3.1106    1.0000 </r>
       <r>   -3.1071    1.0000 </r>
       <r>   -3.1044    1.0000 </r>
       <r>   -3.0925    1.0000 </r>
       <r>   -3.0839    1.0000 </r>
       <r>   -3.0751    1.0000 </r>
       <r>   -3.0660    1.0000 </r>
       <r>   -3.0527    1.0000 </r>
       <r>   -3.0369    1.0000 </r>
       <r>   -3.0334    1.0000 </r>
       <r>   -2.9875    1.0000 </r>
       <r>   -2.9839    1.0000 </r>
       <r>   -2.9371    1.0000 </r>
       <r>   -2.8875    1.0000 </r>
       <r>   -2.8844    1.0000 </r>
       <r>   -2.8505    1.0000 </r>
       <r>   -2.8424    1.0000 </r>
       <r>   -2.7400    1.0000 </r>
       <r>   -2.7299    1.0000 </r>
       <r>   -2.7222    1.0000 </r>
       <r>   -2.7211    1.0000 </r>
       <r>   -2.6907    1.0000 </r>
       <r>   -2.6842    1.0000 </r>
       <r>   -2.6728    1.0000 </r>
       <r>   -2.6669    1.0000 </r>
       <r>   -2.6539    1.0000 </r>
       <r>   -2.6305    1.0000 </r>
       <r>   -2.6277    1.0000 </r>
       <r>   -2.6221    1.0000 </r>
       <r>   -2.6173    1.0000 </r>
       <r>   -2.5919    1.0000 </r>
       <r>   -2.5891    1.0000 </r>
       <r>   -2.5860    1.0000 </r>
       <r>   -2.5828    1.0000 </r>
       <r>   -2.5702    1.0000 </r>
       <r>   -2.5642    1.0000 </r>
       <r>   -2.5434    1.0000 </r>
       <r>   -2.5239    1.0000 </r>
       <r>   -2.5172    1.0000 </r>
       <r>   -2.5134    1.0000 </r>
       <r>   -2.5107    1.0000 </r>
       <r>   -2.4971    1.0000 </r>
       <r>   -2.4950    1.0000 </r>
       <r>   -2.4921    1.0000 </r>
       <r>   -2.4871    1.0000 </r>
       <r>   -2.4830    1.0000 </r>
       <r>   -2.4786    1.0000 </r>
       <r>   -2.4764    1.0000 </r>
       <r>   -2.4607    1.0000 </r>
       <r>   -2.4580    1.0000 </r>
       <r>   -2.4157    1.0000 </r>
       <r>   -2.3990    1.0000 </r>
       <r>   -2.3670    1.0000 </r>
       <r>   -2.3411    1.0000 </r>
       <r>   -2.3327    1.0000 </r>
       <r>   -2.3267    1.0000 </r>
       <r>   -2.3076    1.0000 </r>
       <r>   -2.2976    1.0000 </r>
       <r>   -2.2936    1.0000 </r>
       <r>   -2.2926    1.0000 </r>
       <r>   -2.2924    1.0000 </r>
       <r>   -2.2887    1.0000 </r>
       <r>   -2.2860    1.0000 </r>
       <r>   -2.2731    1.0000 </r>
       <r>   -2.2468    1.0000 </r>
       <r>   -2.2453    1.0000 </r>
       <r>   -2.1983    1.0000 </r>
       <r>   -2.1671    1.0000 </r>
       <r>   -2.1654    1.0000 </r>
       <r>   -2.1567    1.0000 </r>
       <r>   -2.1542    1.0000 </r>
       <r>   -2.1452    1.0000 </r>
       <r>   -2.1410    1.0000 </r>
       <r>   -2.1317    1.0000 </r>
       <r>   -2.1240    1.0000 </r>
       <r>   -2.1223    1.0000 </r>
       <r>   -2.1206    1.0000 </r>
       <r>   -2.1194    1.0000 </r>
       <r>   -2.1179    1.0000 </r>
       <r>   -2.1094    1.0000 </r>
       <r>   -2.1067    1.0000 </r>
       <r>   -2.1055    1.0000 </r>
       <r>   -2.0804    1.0000 </r>
       <r>   -2.0780    1.0000 </r>
       <r>   -2.0431    1.0000 </r>
       <r>   -2.0397    1.0000 </r>
       <r>   -2.0391    1.0000 </r>
       <r>   -2.0333    1.0000 </r>
       <r>   -2.0299    1.0000 </r>
       <r>   -1.9935    1.0000 </r>
       <r>   -1.9592    1.0000 </r>
       <r>   -1.9573    1.0000 </r>
       <r>   -1.9538    1.0000 </r>
       <r>   -1.9514    1.0000 </r>
       <r>   -1.9479    1.0000 </r>
       <r>   -1.9423    1.0000 </r>
       <r>   -1.9383    1.0000 </r>
       <r>   -1.9247    1.0000 </r>
       <r>   -1.9047    1.0000 </r>
       <r>   -1.8995    1.0000 </r>
       <r>   -1.8959    1.0000 </r>
       <r>   -1.8951    1.0000 </r>
       <r>   -1.8838    1.0000 </r>
       <r>   -1.8797    1.0000 </r>
       <r>   -1.8749    1.0000 </r>
       <r>   -1.8324    1.0000 </r>
       <r>   -1.4123    1.0000 </r>
       <r>   -1.4088    1.0000 </r>
       <r>   -1.1532    1.0000 </r>
       <r>   -1.1518    1.0000 </r>
       <r>   -1.0739    0.9999 </r>
       <r>   -0.7948    0.9970 </r>
       <r>   -0.6880    1.0309 </r>
       <r>   -0.4605    0.6408 </r>
       <r>   -0.4562    0.6186 </r>
       <r>   -0.1872   -0.0348 </r>
       <r>   -0.1813   -0.0320 </r>
       <r>    0.6738    0.0000 </r>
       <r>    0.7519    0.0000 </r>
       <r>    0.8600    0.0000 </r>
       <r>    1.2424    0.0000 </r>
       <r>    1.2480    0.0000 </r>
       <r>    1.6829    0.0000 </r>
       <r>    1.6858    0.0000 </r>
       <r>    1.7830    0.0000 </r>
       <r>    1.7970    0.0000 </r>
       <r>    2.9994    0.0000 </r>
       <r>    3.0640    0.0000 </r>
       <r>    3.0690    0.0000 </r>
       <r>    3.1999    0.0000 </r>
       <r>    3.4015    0.0000 </r>
       <r>    3.4095    0.0000 </r>
       <r>    3.5233    0.0000 </r>
       <r>    3.5437    0.0000 </r>
       <r>    3.5860    0.0000 </r>
       <r>    3.5898    0.0000 </r>
       <r>    3.7156    0.0000 </r>
       <r>    3.7199    0.0000 </r>
       <r>    3.9674    0.0000 </r>
       <r>    4.4375    0.0000 </r>
       <r>    4.4389    0.0000 </r>
       <r>    4.7414    0.0000 </r>
       <r>    4.7446    0.0000 </r>
       <r>    4.9170    0.0000 </r>
       <r>    5.0941    0.0000 </r>
       <r>    5.1007    0.0000 </r>
       <r>    5.2360    0.0000 </r>
       <r>    5.2411    0.0000 </r>
       <r>    5.3915    0.0000 </r>
       <r>    5.4340    0.0000 </r>
       <r>    5.4379    0.0000 </r>
       <r>    5.4706    0.0000 </r>
       <r>    5.5583    0.0000 </r>
       <r>    5.6913    0.0000 </r>
      </set>
      <set comment="kpoint 5">
       <r>   -8.5217    1.0000 </r>
       <r>   -7.8936    1.0000 </r>
       <r>   -6.9987    1.0000 </r>
       <r>   -6.7346    1.0000 </r>
       <r>   -6.4458    1.0000 </r>
       <r>   -6.2138    1.0000 </r>
       <r>   -5.7955    1.0000 </r>
       <r>   -5.5281    1.0000 </r>
       <r>   -5.4041    1.0000 </r>
       <r>   -5.2611    1.0000 </r>
       <r>   -5.1663    1.0000 </r>
       <r>   -5.0954    1.0000 </r>
       <r>   -5.0662    1.0000 </r>
       <r>   -5.0588    1.0000 </r>
       <r>   -4.8164    1.0000 </r>
       <r>   -4.7877    1.0000 </r>
       <r>   -4.7814    1.0000 </r>
       <r>   -4.7261    1.0000 </r>
       <r>   -4.7186    1.0000 </r>
       <r>   -4.6772    1.0000 </r>
       <r>   -4.5684    1.0000 </r>
       <r>   -4.5164    1.0000 </r>
       <r>   -4.5070    1.0000 </r>
       <r>   -4.4710    1.0000 </r>
       <r>   -4.4405    1.0000 </r>
       <r>   -4.4035    1.0000 </r>
       <r>   -4.3927    1.0000 </r>
       <r>   -4.3847    1.0000 </r>
       <r>   -4.3707    1.0000 </r>
       <r>   -4.3407    1.0000 </r>
       <r>   -4.3223    1.0000 </r>
       <r>   -4.3171    1.0000 </r>
       <r>   -4.2274    1.0000 </r>
       <r>   -4.2206    1.0000 </r>
       <r>   -4.1441    1.0000 </r>
       <r>   -4.1334    1.0000 </r>
       <r>   -4.1092    1.0000 </r>
       <r>   -4.1017    1.0000 </r>
       <r>   -4.0394    1.0000 </r>
       <r>   -4.0371    1.0000 </r>
       <r>   -4.0173    1.0000 </r>
       <r>   -3.9919    1.0000 </r>
       <r>   -3.9823    1.0000 </r>
       <r>   -3.9172    1.0000 </r>
       <r>   -3.9115    1.0000 </r>
       <r>   -3.9022    1.0000 </r>
       <r>   -3.8490    1.0000 </r>
       <r>   -3.8100    1.0000 </r>
       <r>   -3.8074    1.0000 </r>
       <r>   -3.7883    1.0000 </r>
       <r>   -3.7788    1.0000 </r>
       <r>   -3.7238    1.0000 </r>
       <r>   -3.6780    1.0000 </r>
       <r>   -3.6657    1.0000 </r>
       <r>   -3.6542    1.0000 </r>
       <r>   -3.6302    1.0000 </r>
       <r>   -3.6232    1.0000 </r>
       <r>   -3.6093    1.0000 </r>
       <r>   -3.5629    1.0000 </r>
       <r>   -3.5588    1.0000 </r>
       <r>   -3.5406    1.0000 </r>
       <r>   -3.5357    1.0000 </r>
       <r>   -3.5228    1.0000 </r>
       <r>   -3.5155    1.0000 </r>
       <r>   -3.5045    1.0000 </r>
       <r>   -3.4972    1.0000 </r>
       <r>   -3.4813    1.0000 </r>
       <r>   -3.4076    1.0000 </r>
       <r>   -3.3683    1.0000 </r>
       <r>   -3.3377    1.0000 </r>
       <r>   -3.3292    1.0000 </r>
       <r>   -3.3232    1.0000 </r>
       <r>   -3.3046    1.0000 </r>
       <r>   -3.2937    1.0000 </r>
       <r>   -3.2445    1.0000 </r>
       <r>   -3.2242    1.0000 </r>
       <r>   -3.1982    1.0000 </r>
       <r>   -3.1960    1.0000 </r>
       <r>   -3.1841    1.0000 </r>
       <r>   -3.1796    1.0000 </r>
       <r>   -3.1738    1.0000 </r>
       <r>   -3.1703    1.0000 </r>
       <r>   -3.1612    1.0000 </r>
       <r>   -3.1578    1.0000 </r>
       <r>   -3.1409    1.0000 </r>
       <r>   -3.1293    1.0000 </r>
       <r>   -3.1148    1.0000 </r>
       <r>   -3.1121    1.0000 </r>
       <r>   -3.0872    1.0000 </r>
       <r>   -3.0833    1.0000 </r>
       <r>   -3.0766    1.0000 </r>
       <r>   -3.0550    1.0000 </r>
       <r>   -3.0480    1.0000 </r>
       <r>   -3.0144    1.0000 </r>
       <r>   -3.0075    1.0000 </r>
       <r>   -2.9796    1.0000 </r>
       <r>   -2.9544    1.0000 </r>
       <r>   -2.9516    1.0000 </r>
       <r>   -2.8914    1.0000 </r>
       <r>   -2.8785    1.0000 </r>
       <r>   -2.8437    1.0000 </r>
       <r>   -2.8426    1.0000 </r>
       <r>   -2.8325    1.0000 </r>
       <r>   -2.8259    1.0000 </r>
       <r>   -2.8181    1.0000 </r>
       <r>   -2.8142    1.0000 </r>
       <r>   -2.7962    1.0000 </r>
       <r>   -2.7902    1.0000 </r>
       <r>   -2.7779    1.0000 </r>
       <r>   -2.7616    1.0000 </r>
       <r>   -2.7529    1.0000 </r>
       <r>   -2.7389    1.0000 </r>
       <r>   -2.7071    1.0000 </r>
       <r>   -2.6911    1.0000 </r>
       <r>   -2.6882    1.0000 </r>
       <r>   -2.6822    1.0000 </r>
       <r>   -2.6788    1.0000 </r>
       <r>   -2.6712    1.0000 </r>
       <r>   -2.6471    1.0000 </r>
       <r>   -2.6396    1.0000 </r>
       <r>   -2.6256    1.0000 </r>
       <r>   -2.6069    1.0000 </r>
       <r>   -2.6000    1.0000 </r>
       <r>   -2.5921    1.0000 </r>
       <r>   -2.5846    1.0000 </r>
       <r>   -2.5247    1.0000 </r>
       <r>   -2.4953    1.0000 </r>
       <r>   -2.4797    1.0000 </r>
       <r>   -2.4730    1.0000 </r>
       <r>   -2.4678    1.0000 </r>
       <r>   -2.4526    1.0000 </r>
       <r>   -2.4398    1.0000 </r>
       <r>   -2.4246    1.0000 </r>
       <r>   -2.4146    1.0000 </r>
       <r>   -2.4050    1.0000 </r>
       <r>   -2.4022    1.0000 </r>
       <r>   -2.3985    1.0000 </r>
       <r>   -2.3918    1.0000 </r>
       <r>   -2.3696    1.0000 </r>
       <r>   -2.3649    1.0000 </r>
       <r>   -2.3625    1.0000 </r>
       <r>   -2.3582    1.0000 </r>
       <r>   -2.3450    1.0000 </r>
       <r>   -2.3429    1.0000 </r>
       <r>   -2.3228    1.0000 </r>
       <r>   -2.3186    1.0000 </r>
       <r>   -2.2991    1.0000 </r>
       <r>   -2.2922    1.0000 </r>
       <r>   -2.2641    1.0000 </r>
       <r>   -2.2585    1.0000 </r>
       <r>   -2.2518    1.0000 </r>
       <r>   -2.2198    1.0000 </r>
       <r>   -2.2021    1.0000 </r>
       <r>   -2.1978    1.0000 </r>
       <r>   -2.1867    1.0000 </r>
       <r>   -2.1837    1.0000 </r>
       <r>   -2.1492    1.0000 </r>
       <r>   -2.1445    1.0000 </r>
       <r>   -2.1223    1.0000 </r>
       <r>   -2.1208    1.0000 </r>
       <r>   -2.1190    1.0000 </r>
       <r>   -2.1103    1.0000 </r>
       <r>   -2.1049    1.0000 </r>
       <r>   -2.1010    1.0000 </r>
       <r>   -2.0963    1.0000 </r>
       <r>   -2.0817    1.0000 </r>
       <r>   -2.0637    1.0000 </r>
       <r>   -2.0613    1.0000 </r>
       <r>   -2.0588    1.0000 </r>
       <r>   -2.0581    1.0000 </r>
       <r>   -2.0488    1.0000 </r>
       <r>   -2.0357    1.0000 </r>
       <r>   -2.0335    1.0000 </r>
       <r>   -2.0292    1.0000 </r>
       <r>   -2.0144    1.0000 </r>
       <r>   -1.9944    1.0000 </r>
       <r>   -1.9757    1.0000 </r>
       <r>   -1.9660    1.0000 </r>
       <r>   -1.9551    1.0000 </r>
       <r>   -1.9514    1.0000 </r>
       <r>   -1.9409    1.0000 </r>
       <r>   -1.9103    1.0000 </r>
       <r>   -1.9000    1.0000 </r>
       <r>   -1.8973    1.0000 </r>
       <r>   -1.8821    1.0000 </r>
       <r>   -1.8576    1.0000 </r>
       <r>   -1.8076    1.0000 </r>
       <r>   -1.7719    1.0000 </r>
       <r>   -1.7415    1.0000 </r>
       <r>   -1.6843    1.0000 </r>
       <r>   -1.6445    1.0000 </r>
       <r>   -1.5781    1.0000 </r>
       <r>   -1.5088    1.0000 </r>
       <r>   -1.1563    1.0000 </r>
       <r>   -1.0659    0.9999 </r>
       <r>   -0.9316    0.9979 </r>
       <r>   -0.7598    1.0029 </r>
       <r>   -0.3324    0.0582 </r>
       <r>   -0.1532   -0.0188 </r>
       <r>   -0.1419   -0.0141 </r>
       <r>   -0.0659    0.0036 </r>
       <r>    0.0356    0.0032 </r>
       <r>    0.1778    0.0002 </r>
       <r>    0.3806    0.0000 </r>
       <r>    0.6113    0.0000 </r>
       <r>    0.8095    0.0000 </r>
       <r>    1.1864    0.0000 </r>
       <r>    1.3334    0.0000 </r>
       <r>    1.5990    0.0000 </r>
       <r>    1.6165    0.0000 </r>
       <r>    2.0996    0.0000 </r>
       <r>    2.1954    0.0000 </r>
       <r>    2.2608    0.0000 </r>
       <r>    2.2839    0.0000 </r>
       <r>    2.2975    0.0000 </r>
       <r>    2.6309    0.0000 </r>
       <r>    2.7434    0.0000 </r>
       <r>    2.8285    0.0000 </r>
       <r>    3.2774    0.0000 </r>
       <r>    3.2863    0.0000 </r>
       <r>    3.6888    0.0000 </r>
       <r>    3.7206    0.0000 </r>
       <r>    3.7811    0.0000 </r>
       <r>    3.8406    0.0000 </r>
       <r>    3.9311    0.0000 </r>
       <r>    4.0082    0.0000 </r>
       <r>    4.2816    0.0000 </r>
       <r>    4.4691    0.0000 </r>
       <r>    4.4959    0.0000 </r>
       <r>    4.5528    0.0000 </r>
       <r>    4.5760    0.0000 </r>
       <r>    4.8780    0.0000 </r>
       <r>    4.9090    0.0000 </r>
       <r>    5.0306    0.0000 </r>
       <r>    5.0971    0.0000 </r>
       <r>    5.2452    0.0000 </r>
       <r>    5.3797    0.0000 </r>
       <r>    5.5160    0.0000 </r>
       <r>    5.7419    0.0000 </r>
       <r>    5.9703    0.0000 </r>
      </set>
      <set comment="kpoint 6">
       <r>   -8.2017    1.0000 </r>
       <r>   -7.5882    1.0000 </r>
       <r>   -7.5813    1.0000 </r>
       <r>   -6.9975    1.0000 </r>
       <r>   -6.7036    1.0000 </r>
       <r>   -6.1686    1.0000 </r>
       <r>   -6.1600    1.0000 </r>
       <r>   -5.6598    1.0000 </r>
       <r>   -5.0738    1.0000 </r>
       <r>   -5.0668    1.0000 </r>
       <r>   -4.9322    1.0000 </r>
       <r>   -4.8902    1.0000 </r>
       <r>   -4.8818    1.0000 </r>
       <r>   -4.8388    1.0000 </r>
       <r>   -4.8099    1.0000 </r>
       <r>   -4.8067    1.0000 </r>
       <r>   -4.7795    1.0000 </r>
       <r>   -4.6295    1.0000 </r>
       <r>   -4.6142    1.0000 </r>
       <r>   -4.6097    1.0000 </r>
       <r>   -4.5927    1.0000 </r>
       <r>   -4.5881    1.0000 </r>
       <r>   -4.4679    1.0000 </r>
       <r>   -4.4649    1.0000 </r>
       <r>   -4.4348    1.0000 </r>
       <r>   -4.4281    1.0000 </r>
       <r>   -4.3980    1.0000 </r>
       <r>   -4.3918    1.0000 </r>
       <r>   -4.3797    1.0000 </r>
       <r>   -4.3773    1.0000 </r>
       <r>   -4.3093    1.0000 </r>
       <r>   -4.2890    1.0000 </r>
       <r>   -4.2841    1.0000 </r>
       <r>   -4.2793    1.0000 </r>
       <r>   -4.2339    1.0000 </r>
       <r>   -4.2293    1.0000 </r>
       <r>   -4.2093    1.0000 </r>
       <r>   -4.1540    1.0000 </r>
       <r>   -4.1511    1.0000 </r>
       <r>   -4.1426    1.0000 </r>
       <r>   -4.0952    1.0000 </r>
       <r>   -3.9746    1.0000 </r>
       <r>   -3.9358    1.0000 </r>
       <r>   -3.8984    1.0000 </r>
       <r>   -3.8953    1.0000 </r>
       <r>   -3.8330    1.0000 </r>
       <r>   -3.8227    1.0000 </r>
       <r>   -3.8081    1.0000 </r>
       <r>   -3.8022    1.0000 </r>
       <r>   -3.7949    1.0000 </r>
       <r>   -3.7802    1.0000 </r>
       <r>   -3.7749    1.0000 </r>
       <r>   -3.7404    1.0000 </r>
       <r>   -3.7319    1.0000 </r>
       <r>   -3.6980    1.0000 </r>
       <r>   -3.6143    1.0000 </r>
       <r>   -3.6055    1.0000 </r>
       <r>   -3.5979    1.0000 </r>
       <r>   -3.5899    1.0000 </r>
       <r>   -3.5526    1.0000 </r>
       <r>   -3.5454    1.0000 </r>
       <r>   -3.5114    1.0000 </r>
       <r>   -3.5096    1.0000 </r>
       <r>   -3.4673    1.0000 </r>
       <r>   -3.4591    1.0000 </r>
       <r>   -3.4424    1.0000 </r>
       <r>   -3.4362    1.0000 </r>
       <r>   -3.4220    1.0000 </r>
       <r>   -3.4134    1.0000 </r>
       <r>   -3.3648    1.0000 </r>
       <r>   -3.3560    1.0000 </r>
       <r>   -3.3357    1.0000 </r>
       <r>   -3.3323    1.0000 </r>
       <r>   -3.3218    1.0000 </r>
       <r>   -3.3115    1.0000 </r>
       <r>   -3.2775    1.0000 </r>
       <r>   -3.2428    1.0000 </r>
       <r>   -3.2363    1.0000 </r>
       <r>   -3.2320    1.0000 </r>
       <r>   -3.2276    1.0000 </r>
       <r>   -3.2248    1.0000 </r>
       <r>   -3.2171    1.0000 </r>
       <r>   -3.1596    1.0000 </r>
       <r>   -3.1486    1.0000 </r>
       <r>   -3.1442    1.0000 </r>
       <r>   -3.1264    1.0000 </r>
       <r>   -3.1076    1.0000 </r>
       <r>   -3.1053    1.0000 </r>
       <r>   -3.0755    1.0000 </r>
       <r>   -3.0707    1.0000 </r>
       <r>   -3.0475    1.0000 </r>
       <r>   -3.0425    1.0000 </r>
       <r>   -3.0387    1.0000 </r>
       <r>   -3.0023    1.0000 </r>
       <r>   -2.9998    1.0000 </r>
       <r>   -2.9515    1.0000 </r>
       <r>   -2.9359    1.0000 </r>
       <r>   -2.9339    1.0000 </r>
       <r>   -2.9159    1.0000 </r>
       <r>   -2.9011    1.0000 </r>
       <r>   -2.8958    1.0000 </r>
       <r>   -2.8613    1.0000 </r>
       <r>   -2.8396    1.0000 </r>
       <r>   -2.8364    1.0000 </r>
       <r>   -2.8335    1.0000 </r>
       <r>   -2.8287    1.0000 </r>
       <r>   -2.8177    1.0000 </r>
       <r>   -2.8161    1.0000 </r>
       <r>   -2.8100    1.0000 </r>
       <r>   -2.7995    1.0000 </r>
       <r>   -2.7497    1.0000 </r>
       <r>   -2.7451    1.0000 </r>
       <r>   -2.7428    1.0000 </r>
       <r>   -2.7353    1.0000 </r>
       <r>   -2.7180    1.0000 </r>
       <r>   -2.7096    1.0000 </r>
       <r>   -2.6936    1.0000 </r>
       <r>   -2.6913    1.0000 </r>
       <r>   -2.6867    1.0000 </r>
       <r>   -2.6846    1.0000 </r>
       <r>   -2.6782    1.0000 </r>
       <r>   -2.6745    1.0000 </r>
       <r>   -2.6668    1.0000 </r>
       <r>   -2.6552    1.0000 </r>
       <r>   -2.6534    1.0000 </r>
       <r>   -2.6518    1.0000 </r>
       <r>   -2.6193    1.0000 </r>
       <r>   -2.5970    1.0000 </r>
       <r>   -2.5932    1.0000 </r>
       <r>   -2.5702    1.0000 </r>
       <r>   -2.5127    1.0000 </r>
       <r>   -2.5087    1.0000 </r>
       <r>   -2.4609    1.0000 </r>
       <r>   -2.4575    1.0000 </r>
       <r>   -2.4127    1.0000 </r>
       <r>   -2.4099    1.0000 </r>
       <r>   -2.4091    1.0000 </r>
       <r>   -2.3762    1.0000 </r>
       <r>   -2.3557    1.0000 </r>
       <r>   -2.3516    1.0000 </r>
       <r>   -2.3493    1.0000 </r>
       <r>   -2.3467    1.0000 </r>
       <r>   -2.3387    1.0000 </r>
       <r>   -2.3337    1.0000 </r>
       <r>   -2.3282    1.0000 </r>
       <r>   -2.3115    1.0000 </r>
       <r>   -2.3101    1.0000 </r>
       <r>   -2.2705    1.0000 </r>
       <r>   -2.2670    1.0000 </r>
       <r>   -2.2505    1.0000 </r>
       <r>   -2.2210    1.0000 </r>
       <r>   -2.1862    1.0000 </r>
       <r>   -2.1825    1.0000 </r>
       <r>   -2.1706    1.0000 </r>
       <r>   -2.1673    1.0000 </r>
       <r>   -2.1640    1.0000 </r>
       <r>   -2.1608    1.0000 </r>
       <r>   -2.1577    1.0000 </r>
       <r>   -2.1389    1.0000 </r>
       <r>   -2.1379    1.0000 </r>
       <r>   -2.1354    1.0000 </r>
       <r>   -2.1342    1.0000 </r>
       <r>   -2.1257    1.0000 </r>
       <r>   -2.1243    1.0000 </r>
       <r>   -2.1212    1.0000 </r>
       <r>   -2.1195    1.0000 </r>
       <r>   -2.0470    1.0000 </r>
       <r>   -2.0414    1.0000 </r>
       <r>   -2.0296    1.0000 </r>
       <r>   -2.0132    1.0000 </r>
       <r>   -2.0125    1.0000 </r>
       <r>   -2.0069    1.0000 </r>
       <r>   -1.9973    1.0000 </r>
       <r>   -1.9851    1.0000 </r>
       <r>   -1.9847    1.0000 </r>
       <r>   -1.9692    1.0000 </r>
       <r>   -1.9687    1.0000 </r>
       <r>   -1.9468    1.0000 </r>
       <r>   -1.9442    1.0000 </r>
       <r>   -1.9416    1.0000 </r>
       <r>   -1.9380    1.0000 </r>
       <r>   -1.9286    1.0000 </r>
       <r>   -1.9273    1.0000 </r>
       <r>   -1.9168    1.0000 </r>
       <r>   -1.9068    1.0000 </r>
       <r>   -1.8615    1.0000 </r>
       <r>   -1.6825    1.0000 </r>
       <r>   -1.5911    1.0000 </r>
       <r>   -1.5555    1.0000 </r>
       <r>   -1.3112    1.0000 </r>
       <r>   -1.3097    1.0000 </r>
       <r>   -0.9771    0.9990 </r>
       <r>   -0.9747    0.9990 </r>
       <r>   -0.8299    0.9951 </r>
       <r>   -0.6464    1.0483 </r>
       <r>   -0.6456    1.0486 </r>
       <r>   -0.5000    0.8232 </r>
       <r>   -0.4950    0.8025 </r>
       <r>    0.0699    0.0020 </r>
       <r>    0.2768    0.0000 </r>
       <r>    0.2814    0.0000 </r>
       <r>    0.4650    0.0000 </r>
       <r>    0.4664    0.0000 </r>
       <r>    0.5586    0.0000 </r>
       <r>    0.5625    0.0000 </r>
       <r>    0.7397    0.0000 </r>
       <r>    0.7493    0.0000 </r>
       <r>    0.9682    0.0000 </r>
       <r>    0.9717    0.0000 </r>
       <r>    1.3911    0.0000 </r>
       <r>    1.5390    0.0000 </r>
       <r>    1.5503    0.0000 </r>
       <r>    1.6096    0.0000 </r>
       <r>    1.8268    0.0000 </r>
       <r>    2.3532    0.0000 </r>
       <r>    2.6793    0.0000 </r>
       <r>    2.6861    0.0000 </r>
       <r>    2.7943    0.0000 </r>
       <r>    2.8020    0.0000 </r>
       <r>    3.1366    0.0000 </r>
       <r>    3.1388    0.0000 </r>
       <r>    3.4534    0.0000 </r>
       <r>    3.5011    0.0000 </r>
       <r>    3.5790    0.0000 </r>
       <r>    3.5803    0.0000 </r>
       <r>    4.1566    0.0000 </r>
       <r>    4.1786    0.0000 </r>
       <r>    4.1861    0.0000 </r>
       <r>    4.3796    0.0000 </r>
       <r>    4.5963    0.0000 </r>
       <r>    4.7825    0.0000 </r>
       <r>    4.7852    0.0000 </r>
       <r>    5.0825    0.0000 </r>
       <r>    5.0854    0.0000 </r>
       <r>    5.2241    0.0000 </r>
       <r>    5.2246    0.0000 </r>
       <r>    5.4088    0.0000 </r>
       <r>    5.5268    0.0000 </r>
       <r>    5.5632    0.0000 </r>
       <r>    5.7005    0.0000 </r>
      </set>
      <set comment="kpoint 7">
       <r>   -8.2017    1.0000 </r>
       <r>   -7.5875    1.0000 </r>
       <r>   -7.5821    1.0000 </r>
       <r>   -6.9974    1.0000 </r>
       <r>   -6.7037    1.0000 </r>
       <r>   -6.1697    1.0000 </r>
       <r>   -6.1589    1.0000 </r>
       <r>   -5.6598    1.0000 </r>
       <r>   -5.0740    1.0000 </r>
       <r>   -5.0667    1.0000 </r>
       <r>   -4.9321    1.0000 </r>
       <r>   -4.8905    1.0000 </r>
       <r>   -4.8813    1.0000 </r>
       <r>   -4.8387    1.0000 </r>
       <r>   -4.8091    1.0000 </r>
       <r>   -4.8068    1.0000 </r>
       <r>   -4.7804    1.0000 </r>
       <r>   -4.6296    1.0000 </r>
       <r>   -4.6145    1.0000 </r>
       <r>   -4.6092    1.0000 </r>
       <r>   -4.5922    1.0000 </r>
       <r>   -4.5888    1.0000 </r>
       <r>   -4.4676    1.0000 </r>
       <r>   -4.4652    1.0000 </r>
       <r>   -4.4348    1.0000 </r>
       <r>   -4.4278    1.0000 </r>
       <r>   -4.3977    1.0000 </r>
       <r>   -4.3918    1.0000 </r>
       <r>   -4.3803    1.0000 </r>
       <r>   -4.3774    1.0000 </r>
       <r>   -4.3094    1.0000 </r>
       <r>   -4.2891    1.0000 </r>
       <r>   -4.2840    1.0000 </r>
       <r>   -4.2794    1.0000 </r>
       <r>   -4.2340    1.0000 </r>
       <r>   -4.2292    1.0000 </r>
       <r>   -4.2091    1.0000 </r>
       <r>   -4.1540    1.0000 </r>
       <r>   -4.1508    1.0000 </r>
       <r>   -4.1429    1.0000 </r>
       <r>   -4.0952    1.0000 </r>
       <r>   -3.9746    1.0000 </r>
       <r>   -3.9356    1.0000 </r>
       <r>   -3.8981    1.0000 </r>
       <r>   -3.8953    1.0000 </r>
       <r>   -3.8336    1.0000 </r>
       <r>   -3.8231    1.0000 </r>
       <r>   -3.8081    1.0000 </r>
       <r>   -3.8018    1.0000 </r>
       <r>   -3.7958    1.0000 </r>
       <r>   -3.7795    1.0000 </r>
       <r>   -3.7749    1.0000 </r>
       <r>   -3.7401    1.0000 </r>
       <r>   -3.7313    1.0000 </r>
       <r>   -3.6981    1.0000 </r>
       <r>   -3.6144    1.0000 </r>
       <r>   -3.6056    1.0000 </r>
       <r>   -3.5973    1.0000 </r>
       <r>   -3.5900    1.0000 </r>
       <r>   -3.5530    1.0000 </r>
       <r>   -3.5455    1.0000 </r>
       <r>   -3.5116    1.0000 </r>
       <r>   -3.5094    1.0000 </r>
       <r>   -3.4690    1.0000 </r>
       <r>   -3.4583    1.0000 </r>
       <r>   -3.4433    1.0000 </r>
       <r>   -3.4340    1.0000 </r>
       <r>   -3.4220    1.0000 </r>
       <r>   -3.4126    1.0000 </r>
       <r>   -3.3661    1.0000 </r>
       <r>   -3.3561    1.0000 </r>
       <r>   -3.3356    1.0000 </r>
       <r>   -3.3318    1.0000 </r>
       <r>   -3.3217    1.0000 </r>
       <r>   -3.3118    1.0000 </r>
       <r>   -3.2778    1.0000 </r>
       <r>   -3.2430    1.0000 </r>
       <r>   -3.2358    1.0000 </r>
       <r>   -3.2324    1.0000 </r>
       <r>   -3.2272    1.0000 </r>
       <r>   -3.2248    1.0000 </r>
       <r>   -3.2169    1.0000 </r>
       <r>   -3.1610    1.0000 </r>
       <r>   -3.1482    1.0000 </r>
       <r>   -3.1435    1.0000 </r>
       <r>   -3.1250    1.0000 </r>
       <r>   -3.1076    1.0000 </r>
       <r>   -3.1057    1.0000 </r>
       <r>   -3.0755    1.0000 </r>
       <r>   -3.0712    1.0000 </r>
       <r>   -3.0480    1.0000 </r>
       <r>   -3.0421    1.0000 </r>
       <r>   -3.0391    1.0000 </r>
       <r>   -3.0031    1.0000 </r>
       <r>   -2.9990    1.0000 </r>
       <r>   -2.9514    1.0000 </r>
       <r>   -2.9359    1.0000 </r>
       <r>   -2.9338    1.0000 </r>
       <r>   -2.9162    1.0000 </r>
       <r>   -2.9013    1.0000 </r>
       <r>   -2.8959    1.0000 </r>
       <r>   -2.8617    1.0000 </r>
       <r>   -2.8401    1.0000 </r>
       <r>   -2.8361    1.0000 </r>
       <r>   -2.8334    1.0000 </r>
       <r>   -2.8285    1.0000 </r>
       <r>   -2.8170    1.0000 </r>
       <r>   -2.8163    1.0000 </r>
       <r>   -2.8104    1.0000 </r>
       <r>   -2.7984    1.0000 </r>
       <r>   -2.7492    1.0000 </r>
       <r>   -2.7456    1.0000 </r>
       <r>   -2.7427    1.0000 </r>
       <r>   -2.7346    1.0000 </r>
       <r>   -2.7187    1.0000 </r>
       <r>   -2.7097    1.0000 </r>
       <r>   -2.6945    1.0000 </r>
       <r>   -2.6903    1.0000 </r>
       <r>   -2.6858    1.0000 </r>
       <r>   -2.6838    1.0000 </r>
       <r>   -2.6781    1.0000 </r>
       <r>   -2.6751    1.0000 </r>
       <r>   -2.6683    1.0000 </r>
       <r>   -2.6555    1.0000 </r>
       <r>   -2.6529    1.0000 </r>
       <r>   -2.6521    1.0000 </r>
       <r>   -2.6196    1.0000 </r>
       <r>   -2.5951    1.0000 </r>
       <r>   -2.5942    1.0000 </r>
       <r>   -2.5712    1.0000 </r>
       <r>   -2.5128    1.0000 </r>
       <r>   -2.5078    1.0000 </r>
       <r>   -2.4606    1.0000 </r>
       <r>   -2.4578    1.0000 </r>
       <r>   -2.4127    1.0000 </r>
       <r>   -2.4104    1.0000 </r>
       <r>   -2.4094    1.0000 </r>
       <r>   -2.3760    1.0000 </r>
       <r>   -2.3552    1.0000 </r>
       <r>   -2.3525    1.0000 </r>
       <r>   -2.3500    1.0000 </r>
       <r>   -2.3464    1.0000 </r>
       <r>   -2.3382    1.0000 </r>
       <r>   -2.3341    1.0000 </r>
       <r>   -2.3278    1.0000 </r>
       <r>   -2.3116    1.0000 </r>
       <r>   -2.3099    1.0000 </r>
       <r>   -2.2704    1.0000 </r>
       <r>   -2.2670    1.0000 </r>
       <r>   -2.2505    1.0000 </r>
       <r>   -2.2209    1.0000 </r>
       <r>   -2.1862    1.0000 </r>
       <r>   -2.1823    1.0000 </r>
       <r>   -2.1710    1.0000 </r>
       <r>   -2.1675    1.0000 </r>
       <r>   -2.1642    1.0000 </r>
       <r>   -2.1606    1.0000 </r>
       <r>   -2.1575    1.0000 </r>
       <r>   -2.1387    1.0000 </r>
       <r>   -2.1377    1.0000 </r>
       <r>   -2.1355    1.0000 </r>
       <r>   -2.1342    1.0000 </r>
       <r>   -2.1256    1.0000 </r>
       <r>   -2.1239    1.0000 </r>
       <r>   -2.1215    1.0000 </r>
       <r>   -2.1196    1.0000 </r>
       <r>   -2.0468    1.0000 </r>
       <r>   -2.0416    1.0000 </r>
       <r>   -2.0298    1.0000 </r>
       <r>   -2.0134    1.0000 </r>
       <r>   -2.0124    1.0000 </r>
       <r>   -2.0068    1.0000 </r>
       <r>   -1.9975    1.0000 </r>
       <r>   -1.9849    1.0000 </r>
       <r>   -1.9846    1.0000 </r>
       <r>   -1.9693    1.0000 </r>
       <r>   -1.9686    1.0000 </r>
       <r>   -1.9469    1.0000 </r>
       <r>   -1.9448    1.0000 </r>
       <r>   -1.9410    1.0000 </r>
       <r>   -1.9376    1.0000 </r>
       <r>   -1.9289    1.0000 </r>
       <r>   -1.9270    1.0000 </r>
       <r>   -1.9169    1.0000 </r>
       <r>   -1.9068    1.0000 </r>
       <r>   -1.8615    1.0000 </r>
       <r>   -1.6825    1.0000 </r>
       <r>   -1.5911    1.0000 </r>
       <r>   -1.5555    1.0000 </r>
       <r>   -1.3111    1.0000 </r>
       <r>   -1.3097    1.0000 </r>
       <r>   -0.9766    0.9990 </r>
       <r>   -0.9751    0.9990 </r>
       <r>   -0.8300    0.9951 </r>
       <r>   -0.6465    1.0483 </r>
       <r>   -0.6455    1.0486 </r>
       <r>   -0.5009    0.8268 </r>
       <r>   -0.4938    0.7977 </r>
       <r>    0.0698    0.0020 </r>
       <r>    0.2767    0.0000 </r>
       <r>    0.2814    0.0000 </r>
       <r>    0.4649    0.0000 </r>
       <r>    0.4663    0.0000 </r>
       <r>    0.5585    0.0000 </r>
       <r>    0.5623    0.0000 </r>
       <r>    0.7401    0.0000 </r>
       <r>    0.7490    0.0000 </r>
       <r>    0.9687    0.0000 </r>
       <r>    0.9713    0.0000 </r>
       <r>    1.3912    0.0000 </r>
       <r>    1.5413    0.0000 </r>
       <r>    1.5500    0.0000 </r>
       <r>    1.6077    0.0000 </r>
       <r>    1.8268    0.0000 </r>
       <r>    2.3534    0.0000 </r>
       <r>    2.6784    0.0000 </r>
       <r>    2.6871    0.0000 </r>
       <r>    2.7934    0.0000 </r>
       <r>    2.8027    0.0000 </r>
       <r>    3.1368    0.0000 </r>
       <r>    3.1390    0.0000 </r>
       <r>    3.4534    0.0000 </r>
       <r>    3.4995    0.0000 </r>
       <r>    3.5782    0.0000 </r>
       <r>    3.5819    0.0000 </r>
       <r>    4.1565    0.0000 </r>
       <r>    4.1784    0.0000 </r>
       <r>    4.1866    0.0000 </r>
       <r>    4.3799    0.0000 </r>
       <r>    4.5962    0.0000 </r>
       <r>    4.7826    0.0000 </r>
       <r>    4.7851    0.0000 </r>
       <r>    5.0825    0.0000 </r>
       <r>    5.0853    0.0000 </r>
       <r>    5.2241    0.0000 </r>
       <r>    5.2246    0.0000 </r>
       <r>    5.4091    0.0000 </r>
       <r>    5.5244    0.0000 </r>
       <r>    5.5451    0.0000 </r>
       <r>    5.5796    0.0000 </r>
      </set>
      <set comment="kpoint 8">
       <r>   -8.5217    1.0000 </r>
       <r>   -7.8936    1.0000 </r>
       <r>   -6.9987    1.0000 </r>
       <r>   -6.7347    1.0000 </r>
       <r>   -6.4458    1.0000 </r>
       <r>   -6.2138    1.0000 </r>
       <r>   -5.7955    1.0000 </r>
       <r>   -5.5281    1.0000 </r>
       <r>   -5.4041    1.0000 </r>
       <r>   -5.2612    1.0000 </r>
       <r>   -5.1663    1.0000 </r>
       <r>   -5.0953    1.0000 </r>
       <r>   -5.0667    1.0000 </r>
       <r>   -5.0583    1.0000 </r>
       <r>   -4.8164    1.0000 </r>
       <r>   -4.7876    1.0000 </r>
       <r>   -4.7816    1.0000 </r>
       <r>   -4.7269    1.0000 </r>
       <r>   -4.7181    1.0000 </r>
       <r>   -4.6770    1.0000 </r>
       <r>   -4.5683    1.0000 </r>
       <r>   -4.5164    1.0000 </r>
       <r>   -4.5070    1.0000 </r>
       <r>   -4.4711    1.0000 </r>
       <r>   -4.4403    1.0000 </r>
       <r>   -4.4037    1.0000 </r>
       <r>   -4.3928    1.0000 </r>
       <r>   -4.3847    1.0000 </r>
       <r>   -4.3705    1.0000 </r>
       <r>   -4.3406    1.0000 </r>
       <r>   -4.3224    1.0000 </r>
       <r>   -4.3172    1.0000 </r>
       <r>   -4.2269    1.0000 </r>
       <r>   -4.2212    1.0000 </r>
       <r>   -4.1441    1.0000 </r>
       <r>   -4.1332    1.0000 </r>
       <r>   -4.1093    1.0000 </r>
       <r>   -4.1020    1.0000 </r>
       <r>   -4.0393    1.0000 </r>
       <r>   -4.0372    1.0000 </r>
       <r>   -4.0173    1.0000 </r>
       <r>   -3.9921    1.0000 </r>
       <r>   -3.9821    1.0000 </r>
       <r>   -3.9174    1.0000 </r>
       <r>   -3.9115    1.0000 </r>
       <r>   -3.9018    1.0000 </r>
       <r>   -3.8490    1.0000 </r>
       <r>   -3.8097    1.0000 </r>
       <r>   -3.8076    1.0000 </r>
       <r>   -3.7887    1.0000 </r>
       <r>   -3.7788    1.0000 </r>
       <r>   -3.7239    1.0000 </r>
       <r>   -3.6778    1.0000 </r>
       <r>   -3.6662    1.0000 </r>
       <r>   -3.6541    1.0000 </r>
       <r>   -3.6297    1.0000 </r>
       <r>   -3.6231    1.0000 </r>
       <r>   -3.6097    1.0000 </r>
       <r>   -3.5627    1.0000 </r>
       <r>   -3.5589    1.0000 </r>
       <r>   -3.5401    1.0000 </r>
       <r>   -3.5358    1.0000 </r>
       <r>   -3.5228    1.0000 </r>
       <r>   -3.5155    1.0000 </r>
       <r>   -3.5048    1.0000 </r>
       <r>   -3.4972    1.0000 </r>
       <r>   -3.4812    1.0000 </r>
       <r>   -3.4075    1.0000 </r>
       <r>   -3.3682    1.0000 </r>
       <r>   -3.3377    1.0000 </r>
       <r>   -3.3298    1.0000 </r>
       <r>   -3.3235    1.0000 </r>
       <r>   -3.3045    1.0000 </r>
       <r>   -3.2933    1.0000 </r>
       <r>   -3.2442    1.0000 </r>
       <r>   -3.2236    1.0000 </r>
       <r>   -3.1984    1.0000 </r>
       <r>   -3.1965    1.0000 </r>
       <r>   -3.1844    1.0000 </r>
       <r>   -3.1802    1.0000 </r>
       <r>   -3.1734    1.0000 </r>
       <r>   -3.1695    1.0000 </r>
       <r>   -3.1607    1.0000 </r>
       <r>   -3.1587    1.0000 </r>
       <r>   -3.1405    1.0000 </r>
       <r>   -3.1291    1.0000 </r>
       <r>   -3.1153    1.0000 </r>
       <r>   -3.1106    1.0000 </r>
       <r>   -3.0883    1.0000 </r>
       <r>   -3.0831    1.0000 </r>
       <r>   -3.0770    1.0000 </r>
       <r>   -3.0548    1.0000 </r>
       <r>   -3.0480    1.0000 </r>
       <r>   -3.0143    1.0000 </r>
       <r>   -3.0074    1.0000 </r>
       <r>   -2.9801    1.0000 </r>
       <r>   -2.9549    1.0000 </r>
       <r>   -2.9518    1.0000 </r>
       <r>   -2.8920    1.0000 </r>
       <r>   -2.8783    1.0000 </r>
       <r>   -2.8441    1.0000 </r>
       <r>   -2.8419    1.0000 </r>
       <r>   -2.8308    1.0000 </r>
       <r>   -2.8259    1.0000 </r>
       <r>   -2.8182    1.0000 </r>
       <r>   -2.8139    1.0000 </r>
       <r>   -2.7957    1.0000 </r>
       <r>   -2.7898    1.0000 </r>
       <r>   -2.7804    1.0000 </r>
       <r>   -2.7616    1.0000 </r>
       <r>   -2.7524    1.0000 </r>
       <r>   -2.7394    1.0000 </r>
       <r>   -2.7072    1.0000 </r>
       <r>   -2.6921    1.0000 </r>
       <r>   -2.6882    1.0000 </r>
       <r>   -2.6813    1.0000 </r>
       <r>   -2.6785    1.0000 </r>
       <r>   -2.6703    1.0000 </r>
       <r>   -2.6461    1.0000 </r>
       <r>   -2.6397    1.0000 </r>
       <r>   -2.6257    1.0000 </r>
       <r>   -2.6075    1.0000 </r>
       <r>   -2.5986    1.0000 </r>
       <r>   -2.5918    1.0000 </r>
       <r>   -2.5862    1.0000 </r>
       <r>   -2.5247    1.0000 </r>
       <r>   -2.4954    1.0000 </r>
       <r>   -2.4795    1.0000 </r>
       <r>   -2.4731    1.0000 </r>
       <r>   -2.4682    1.0000 </r>
       <r>   -2.4526    1.0000 </r>
       <r>   -2.4397    1.0000 </r>
       <r>   -2.4246    1.0000 </r>
       <r>   -2.4151    1.0000 </r>
       <r>   -2.4054    1.0000 </r>
       <r>   -2.4018    1.0000 </r>
       <r>   -2.3985    1.0000 </r>
       <r>   -2.3918    1.0000 </r>
       <r>   -2.3699    1.0000 </r>
       <r>   -2.3651    1.0000 </r>
       <r>   -2.3629    1.0000 </r>
       <r>   -2.3583    1.0000 </r>
       <r>   -2.3445    1.0000 </r>
       <r>   -2.3433    1.0000 </r>
       <r>   -2.3220    1.0000 </r>
       <r>   -2.3189    1.0000 </r>
       <r>   -2.2990    1.0000 </r>
       <r>   -2.2918    1.0000 </r>
       <r>   -2.2646    1.0000 </r>
       <r>   -2.2581    1.0000 </r>
       <r>   -2.2518    1.0000 </r>
       <r>   -2.2195    1.0000 </r>
       <r>   -2.2026    1.0000 </r>
       <r>   -2.1975    1.0000 </r>
       <r>   -2.1866    1.0000 </r>
       <r>   -2.1839    1.0000 </r>
       <r>   -2.1490    1.0000 </r>
       <r>   -2.1443    1.0000 </r>
       <r>   -2.1224    1.0000 </r>
       <r>   -2.1215    1.0000 </r>
       <r>   -2.1188    1.0000 </r>
       <r>   -2.1101    1.0000 </r>
       <r>   -2.1053    1.0000 </r>
       <r>   -2.1010    1.0000 </r>
       <r>   -2.0958    1.0000 </r>
       <r>   -2.0816    1.0000 </r>
       <r>   -2.0643    1.0000 </r>
       <r>   -2.0612    1.0000 </r>
       <r>   -2.0590    1.0000 </r>
       <r>   -2.0580    1.0000 </r>
       <r>   -2.0481    1.0000 </r>
       <r>   -2.0358    1.0000 </r>
       <r>   -2.0335    1.0000 </r>
       <r>   -2.0293    1.0000 </r>
       <r>   -2.0145    1.0000 </r>
       <r>   -1.9945    1.0000 </r>
       <r>   -1.9757    1.0000 </r>
       <r>   -1.9661    1.0000 </r>
       <r>   -1.9548    1.0000 </r>
       <r>   -1.9515    1.0000 </r>
       <r>   -1.9409    1.0000 </r>
       <r>   -1.9104    1.0000 </r>
       <r>   -1.8998    1.0000 </r>
       <r>   -1.8973    1.0000 </r>
       <r>   -1.8821    1.0000 </r>
       <r>   -1.8578    1.0000 </r>
       <r>   -1.8074    1.0000 </r>
       <r>   -1.7719    1.0000 </r>
       <r>   -1.7417    1.0000 </r>
       <r>   -1.6844    1.0000 </r>
       <r>   -1.6443    1.0000 </r>
       <r>   -1.5782    1.0000 </r>
       <r>   -1.5086    1.0000 </r>
       <r>   -1.1563    1.0000 </r>
       <r>   -1.0658    0.9999 </r>
       <r>   -0.9317    0.9979 </r>
       <r>   -0.7597    1.0030 </r>
       <r>   -0.3324    0.0582 </r>
       <r>   -0.1543   -0.0193 </r>
       <r>   -0.1408   -0.0137 </r>
       <r>   -0.0659    0.0036 </r>
       <r>    0.0355    0.0032 </r>
       <r>    0.1778    0.0002 </r>
       <r>    0.3806    0.0000 </r>
       <r>    0.6111    0.0000 </r>
       <r>    0.8096    0.0000 </r>
       <r>    1.1864    0.0000 </r>
       <r>    1.3335    0.0000 </r>
       <r>    1.5986    0.0000 </r>
       <r>    1.6168    0.0000 </r>
       <r>    2.0993    0.0000 </r>
       <r>    2.1953    0.0000 </r>
       <r>    2.2609    0.0000 </r>
       <r>    2.2842    0.0000 </r>
       <r>    2.2977    0.0000 </r>
       <r>    2.6305    0.0000 </r>
       <r>    2.7438    0.0000 </r>
       <r>    2.8285    0.0000 </r>
       <r>    3.2767    0.0000 </r>
       <r>    3.2868    0.0000 </r>
       <r>    3.6886    0.0000 </r>
       <r>    3.7207    0.0000 </r>
       <r>    3.7812    0.0000 </r>
       <r>    3.8406    0.0000 </r>
       <r>    3.9302    0.0000 </r>
       <r>    4.0092    0.0000 </r>
       <r>    4.2816    0.0000 </r>
       <r>    4.4691    0.0000 </r>
       <r>    4.4958    0.0000 </r>
       <r>    4.5529    0.0000 </r>
       <r>    4.5758    0.0000 </r>
       <r>    4.8781    0.0000 </r>
       <r>    4.9092    0.0000 </r>
       <r>    5.0312    0.0000 </r>
       <r>    5.0962    0.0000 </r>
       <r>    5.2452    0.0000 </r>
       <r>    5.3794    0.0000 </r>
       <r>    5.5008    0.0000 </r>
       <r>    5.7414    0.0000 </r>
       <r>    5.9040    0.0000 </r>
      </set>
     </set>
    </set>
   </array>
  </eigenvalues>
  <separator name="orbital magnetization" >
   <v name="MAGDIPOLOUT">      0.00000000      0.00000000      0.00000000</v>
  </separator>
  <dos>
   <i name="efermi">     -0.43350218 </i>
   <total>
    <array>
     <dimension dim="1">gridpoints</dimension>
     <dimension dim="2">spin</dimension>
     <field>energy</field>
     <field>total</field>
     <field>integrated</field>
     <set>
      <set comment="spin 1">
       <r>   -10.8461     0.0000     0.0000 </r>
       <r>   -10.7834     0.0000     0.0000 </r>
       <r>   -10.7207     0.0000     0.0000 </r>
       <r>   -10.6580     0.0000     0.0000 </r>
       <r>   -10.5952     0.0000     0.0000 </r>
       <r>   -10.5325     0.0000     0.0000 </r>
       <r>   -10.4698     0.0000     0.0000 </r>
       <r>   -10.4071     0.0000     0.0000 </r>
       <r>   -10.3444     0.0000     0.0000 </r>
       <r>   -10.2816     0.0000     0.0000 </r>
       <r>   -10.2189     0.0000     0.0000 </r>
       <r>   -10.1562     0.0000     0.0000 </r>
       <r>   -10.0935     0.0000     0.0000 </r>
       <r>   -10.0307     0.0000     0.0000 </r>
       <r>    -9.9680     0.0000     0.0000 </r>
       <r>    -9.9053     0.0000     0.0000 </r>
       <r>    -9.8426     0.0000     0.0000 </r>
       <r>    -9.7799     0.0000     0.0000 </r>
       <r>    -9.7171     0.0000     0.0000 </r>
       <r>    -9.6544     0.0000     0.0000 </r>
       <r>    -9.5917     0.0000     0.0000 </r>
       <r>    -9.5290     0.0002     0.0000 </r>
       <r>    -9.4663     0.0012     0.0001 </r>
       <r>    -9.4035     0.0045     0.0004 </r>
       <r>    -9.3408     0.0119     0.0011 </r>
       <r>    -9.2781     0.0178     0.0022 </r>
       <r>    -9.2154    -0.0056     0.0019 </r>
       <r>    -9.1526    -0.0969    -0.0042 </r>
       <r>    -9.0899    -0.2106    -0.0174 </r>
       <r>    -9.0272    -0.0955    -0.0234 </r>
       <r>    -8.9645     0.5669     0.0122 </r>
       <r>    -8.9018     1.6518     0.1158 </r>
       <r>    -8.8390     2.3549     0.2635 </r>
       <r>    -8.7763     1.9801     0.3877 </r>
       <r>    -8.7136     1.0619     0.4543 </r>
       <r>    -8.6509     1.0975     0.5231 </r>
       <r>    -8.5882     2.7209     0.6938 </r>
       <r>    -8.5254     4.5730     0.9806 </r>
       <r>    -8.4627     4.7119     1.2761 </r>
       <r>    -8.4000     3.0102     1.4649 </r>
       <r>    -8.3373     1.3077     1.5469 </r>
       <r>    -8.2745     1.0760     1.6144 </r>
       <r>    -8.2118     1.7757     1.7258 </r>
       <r>    -8.1491     1.9499     1.8481 </r>
       <r>    -8.0864     1.3800     1.9347 </r>
       <r>    -8.0237     1.3749     2.0209 </r>
       <r>    -7.9609     2.7810     2.1953 </r>
       <r>    -7.8982     4.4361     2.4736 </r>
       <r>    -7.8355     4.4684     2.7538 </r>
       <r>    -7.7728     2.9150     2.9367 </r>
       <r>    -7.7101     1.8852     3.0549 </r>
       <r>    -7.6473     2.7685     3.2286 </r>
       <r>    -7.5846     4.3513     3.5015 </r>
       <r>    -7.5219     4.5328     3.7858 </r>
       <r>    -7.4592     3.1381     3.9826 </r>
       <r>    -7.3964     1.8097     4.0961 </r>
       <r>    -7.3337     1.4405     4.1865 </r>
       <r>    -7.2710     1.2756     4.2665 </r>
       <r>    -7.2083     1.0252     4.3308 </r>
       <r>    -7.1456     2.3235     4.4765 </r>
       <r>    -7.0828     6.3947     4.8776 </r>
       <r>    -7.0201    10.9418     5.5639 </r>
       <r>    -6.9574    11.8821     6.3091 </r>
       <r>    -6.8947     8.6783     6.8535 </r>
       <r>    -6.8320     5.3362     7.1881 </r>
       <r>    -6.7692     4.9979     7.5016 </r>
       <r>    -6.7065     6.1614     7.8881 </r>
       <r>    -6.6438     5.8600     8.2556 </r>
       <r>    -6.5811     4.1642     8.5168 </r>
       <r>    -6.5184     3.2319     8.7195 </r>
       <r>    -6.4556     3.5484     8.9421 </r>
       <r>    -6.3929     3.8389     9.1829 </r>
       <r>    -6.3302     4.0511     9.4370 </r>
       <r>    -6.2675     5.6468     9.7911 </r>
       <r>    -6.2047     8.6732    10.3351 </r>
       <r>    -6.1420    10.8268    11.0142 </r>
       <r>    -6.0793    10.1061    11.6481 </r>
       <r>    -6.0166     7.0785    12.0920 </r>
       <r>    -5.9539     4.3593    12.3655 </r>
       <r>    -5.8911     4.4040    12.6417 </r>
       <r>    -5.8284     7.1874    13.0925 </r>
       <r>    -5.7657     9.9851    13.7188 </r>
       <r>    -5.7030    10.4275    14.3728 </r>
       <r>    -5.6403     9.1841    14.9488 </r>
       <r>    -5.5775     8.4772    15.4805 </r>
       <r>    -5.5148     9.0783    16.0499 </r>
       <r>    -5.4521    10.1139    16.6843 </r>
       <r>    -5.3894    10.8307    17.3636 </r>
       <r>    -5.3266    11.4707    18.0831 </r>
       <r>    -5.2639    13.1316    18.9067 </r>
       <r>    -5.2012    17.1280    19.9810 </r>
       <r>    -5.1385    23.0977    21.4297 </r>
       <r>    -5.0758    27.6205    23.1621 </r>
       <r>    -5.0130    27.4757    24.8854 </r>
       <r>    -4.9503    24.8729    26.4455 </r>
       <r>    -4.8876    25.7120    28.0582 </r>
       <r>    -4.8249    31.7658    30.0506 </r>
       <r>    -4.7622    38.6480    32.4746 </r>
       <r>    -4.6994    42.2677    35.1257 </r>
       <r>    -4.6367    43.5252    37.8557 </r>
       <r>    -4.5740    46.4340    40.7681 </r>
       <r>    -4.5113    54.5574    44.1900 </r>
       <r>    -4.4485    68.1703    48.4657 </r>
       <r>    -4.3858    82.2953    53.6274 </r>
       <r>    -4.3231    89.5249    59.2425 </r>
       <r>    -4.2604    87.0973    64.7054 </r>
       <r>    -4.1977    79.2958    69.6789 </r>
       <r>    -4.1349    71.8437    74.1851 </r>
       <r>    -4.0722    66.5678    78.3603 </r>
       <r>    -4.0095    62.8566    82.3027 </r>
       <r>    -3.9468    61.7767    86.1775 </r>
       <r>    -3.8841    65.5996    90.2920 </r>
       <r>    -3.8213    73.3679    94.8937 </r>
       <r>    -3.7586    80.7346    99.9575 </r>
       <r>    -3.6959    86.2889   105.3696 </r>
       <r>    -3.6332    93.7824   111.2518 </r>
       <r>    -3.5704   104.2708   117.7918 </r>
       <r>    -3.5077   110.6641   124.7328 </r>
       <r>    -3.4450   106.1054   131.3879 </r>
       <r>    -3.3823    95.6085   137.3846 </r>
       <r>    -3.3196    94.0865   143.2858 </r>
       <r>    -3.2568   111.8485   150.3011 </r>
       <r>    -3.1941   142.4117   159.2334 </r>
       <r>    -3.1314   164.7647   169.5676 </r>
       <r>    -3.0687   160.9721   179.6640 </r>
       <r>    -3.0060   134.3282   188.0893 </r>
       <r>    -2.9432   107.6905   194.8438 </r>
       <r>    -2.8805   102.1436   201.2504 </r>
       <r>    -2.8178   119.7674   208.7623 </r>
       <r>    -2.7551   146.2035   217.9324 </r>
       <r>    -2.6923   164.0616   228.2226 </r>
       <r>    -2.6296   164.4209   238.5353 </r>
       <r>    -2.5669   152.8752   248.1238 </r>
       <r>    -2.5042   145.0342   257.2206 </r>
       <r>    -2.4415   150.4058   266.6542 </r>
       <r>    -2.3787   162.0517   276.8183 </r>
       <r>    -2.3160   167.8725   287.3475 </r>
       <r>    -2.2533   169.0613   297.9513 </r>
       <r>    -2.1906   178.1231   309.1234 </r>
       <r>    -2.1279   198.6562   321.5834 </r>
       <r>    -2.0651   217.1671   335.2044 </r>
       <r>    -2.0024   216.7039   348.7964 </r>
       <r>    -1.9397   190.3039   360.7325 </r>
       <r>    -1.8770   142.5627   369.6742 </r>
       <r>    -1.8142    87.6987   375.1748 </r>
       <r>    -1.7515    44.1593   377.9445 </r>
       <r>    -1.6888    22.4577   379.3531 </r>
       <r>    -1.6261    18.1653   380.4925 </r>
       <r>    -1.5634    19.3423   381.7057 </r>
       <r>    -1.5006    18.1934   382.8468 </r>
       <r>    -1.4379    14.2541   383.7408 </r>
       <r>    -1.3752    10.1775   384.3791 </r>
       <r>    -1.3125     7.9702   384.8790 </r>
       <r>    -1.2498     8.4978   385.4120 </r>
       <r>    -1.1870    11.5914   386.1391 </r>
       <r>    -1.1243    15.5052   387.1116 </r>
       <r>    -1.0616    17.7037   388.2220 </r>
       <r>    -0.9989    17.0572   389.2918 </r>
       <r>    -0.9361    14.7083   390.2144 </r>
       <r>    -0.8734    12.7381   391.0133 </r>
       <r>    -0.8107    12.2819   391.7836 </r>
       <r>    -0.7480    12.6572   392.5775 </r>
       <r>    -0.6853    12.3620   393.3529 </r>
       <r>    -0.6225    11.1253   394.0507 </r>
       <r>    -0.5598    10.2347   394.6926 </r>
       <r>    -0.4971    10.3681   395.3429 </r>
       <r>    -0.4344    10.3381   395.9913 </r>
       <r>    -0.3717     9.1542   396.5655 </r>
       <r>    -0.3089     8.3091   397.0867 </r>
       <r>    -0.2462    10.2571   397.7300 </r>
       <r>    -0.1835    14.7084   398.6525 </r>
       <r>    -0.1208    18.1540   399.7912 </r>
       <r>    -0.0580    17.7935   400.9072 </r>
       <r>     0.0047    14.5197   401.8179 </r>
       <r>     0.0674    11.1772   402.5190 </r>
       <r>     0.1301     9.3890   403.1078 </r>
       <r>     0.1928     9.0037   403.6726 </r>
       <r>     0.2556     9.3110   404.2566 </r>
       <r>     0.3183     9.8064   404.8716 </r>
       <r>     0.3810    10.3143   405.5186 </r>
       <r>     0.4437    10.9269   406.2039 </r>
       <r>     0.5064    11.7828   406.9429 </r>
       <r>     0.5692    12.8526   407.7491 </r>
       <r>     0.6319    14.0358   408.6294 </r>
       <r>     0.6946    15.2300   409.5847 </r>
       <r>     0.7573    15.9297   410.5838 </r>
       <r>     0.8200    15.1787   411.5358 </r>
       <r>     0.8828    12.5452   412.3227 </r>
       <r>     0.9455     8.7790   412.8733 </r>
       <r>     1.0082     5.3157   413.2067 </r>
       <r>     1.0709     3.7239   413.4403 </r>
       <r>     1.1337     5.1140   413.7610 </r>
       <r>     1.1964     8.8120   414.3137 </r>
       <r>     1.2591    12.0079   415.0669 </r>
       <r>     1.3218    12.0359   415.8218 </r>
       <r>     1.3845     9.2956   416.4048 </r>
       <r>     1.4473     7.4302   416.8709 </r>
       <r>     1.5100     9.8366   417.4878 </r>
       <r>     1.5727    15.6264   418.4679 </r>
       <r>     1.6354    20.0834   419.7276 </r>
       <r>     1.6981    19.7399   420.9657 </r>
       <r>     1.7609    15.4566   421.9352 </r>
       <r>     1.8236    10.0130   422.5632 </r>
       <r>     1.8863     5.0853   422.8822 </r>
       <r>     1.9490     1.5920   422.9820 </r>
       <r>     2.0118     0.7515   423.0291 </r>
       <r>     2.0745     3.4185   423.2436 </r>
       <r>     2.1372     9.1895   423.8199 </r>
       <r>     2.1999    16.1637   424.8337 </r>
       <r>     2.2626    20.9170   426.1457 </r>
       <r>     2.3254    19.9811   427.3989 </r>
       <r>     2.3881    13.1526   428.2239 </r>
       <r>     2.4508     4.7822   428.5238 </r>
       <r>     2.5135     0.4574   428.5525 </r>
       <r>     2.5762     2.5584   428.7130 </r>
       <r>     2.6390     9.1317   429.2857 </r>
       <r>     2.7017    15.9330   430.2851 </r>
       <r>     2.7644    19.0525   431.4801 </r>
       <r>     2.8271    16.9355   432.5423 </r>
       <r>     2.8899    11.4882   433.2628 </r>
       <r>     2.9526     6.9449   433.6984 </r>
       <r>     3.0153     6.3224   434.0950 </r>
       <r>     3.0780     8.9834   434.6584 </r>
       <r>     3.1407    12.2044   435.4239 </r>
       <r>     3.2035    14.1435   436.3110 </r>
       <r>     3.2662    14.4900   437.2198 </r>
       <r>     3.3289    13.7194   438.0803 </r>
       <r>     3.3916    13.0508   438.8989 </r>
       <r>     3.4543    14.0083   439.7775 </r>
       <r>     3.5171    16.8867   440.8367 </r>
       <r>     3.5798    20.3880   442.1155 </r>
       <r>     3.6425    23.0524   443.5613 </r>
       <r>     3.7052    24.0352   445.0689 </r>
       <r>     3.7680    22.8408   446.5015 </r>
       <r>     3.8307    19.8177   447.7445 </r>
       <r>     3.8934    16.4367   448.7754 </r>
       <r>     3.9561    13.7817   449.6398 </r>
       <r>     4.0188    11.6496   450.3705 </r>
       <r>     4.0816     9.8976   450.9913 </r>
       <r>     4.1443     9.0557   451.5592 </r>
       <r>     4.2070     9.0223   452.1251 </r>
       <r>     4.2697     9.1643   452.6999 </r>
       <r>     4.3324    10.2255   453.3413 </r>
       <r>     4.3952    13.9000   454.2131 </r>
       <r>     4.4579    19.5372   455.4385 </r>
       <r>     4.5206    23.1789   456.8923 </r>
       <r>     4.5833    21.5347   458.2430 </r>
       <r>     4.6461    16.1080   459.2533 </r>
       <r>     4.7088    11.7847   459.9925 </r>
       <r>     4.7715    11.5068   460.7142 </r>
       <r>     4.8342    13.8276   461.5815 </r>
       <r>     4.8969    15.8919   462.5782 </r>
       <r>     4.9597    17.1476   463.6538 </r>
       <r>     5.0224    18.9166   464.8402 </r>
       <r>     5.0851    21.3103   466.1768 </r>
       <r>     5.1478    22.5406   467.5906 </r>
       <r>     5.2105    21.4731   468.9374 </r>
       <r>     5.2733    19.4686   470.1585 </r>
       <r>     5.3360    19.1287   471.3583 </r>
       <r>     5.3987    21.3273   472.6960 </r>
       <r>     5.4614    23.6665   474.1804 </r>
       <r>     5.5242    22.7543   475.6076 </r>
       <r>     5.5869    18.1763   476.7476 </r>
       <r>     5.6496    12.8755   477.5552 </r>
       <r>     5.7123     9.4470   478.1477 </r>
       <r>     5.7750     7.8038   478.6372 </r>
       <r>     5.8378     6.7652   479.0615 </r>
       <r>     5.9005     5.8427   479.4280 </r>
       <r>     5.9632     4.8024   479.7292 </r>
       <r>     6.0259     3.2707   479.9343 </r>
       <r>     6.0886     1.4523   480.0254 </r>
       <r>     6.1514     0.1243   480.0332 </r>
       <r>     6.2141    -0.3281   480.0126 </r>
       <r>     6.2768    -0.2293   479.9982 </r>
       <r>     6.3395    -0.0482   479.9952 </r>
       <r>     6.4023     0.0280   479.9970 </r>
       <r>     6.4650     0.0289   479.9988 </r>
       <r>     6.5277     0.0136   479.9997 </r>
       <r>     6.5904     0.0043   479.9999 </r>
       <r>     6.6531     0.0010   480.0000 </r>
       <r>     6.7159     0.0002   480.0000 </r>
       <r>     6.7786     0.0000   480.0000 </r>
       <r>     6.8413     0.0000   480.0000 </r>
       <r>     6.9040     0.0000   480.0000 </r>
       <r>     6.9667     0.0000   480.0000 </r>
       <r>     7.0295     0.0000   480.0000 </r>
       <r>     7.0922     0.0000   480.0000 </r>
       <r>     7.1549     0.0000   480.0000 </r>
       <r>     7.2176     0.0000   480.0000 </r>
       <r>     7.2804     0.0000   480.0000 </r>
       <r>     7.3431     0.0000   480.0000 </r>
       <r>     7.4058     0.0000   480.0000 </r>
       <r>     7.4685     0.0000   480.0000 </r>
       <r>     7.5312     0.0000   480.0000 </r>
       <r>     7.5940     0.0000   480.0000 </r>
       <r>     7.6567     0.0000   480.0000 </r>
       <r>     7.7194     0.0000   480.0000 </r>
       <r>     7.7821     0.0000   480.0000 </r>
       <r>     7.8448     0.0000   480.0000 </r>
       <r>     7.9076     0.0000   480.0000 </r>
       <r>     7.9703     0.0000   480.0000 </r>
      </set>
     </set>
    </array>
   </total>
  </dos>
 </calculation>
 <structure name="finalpos" >
  <crystal>
   <varray name="basis" >
    <v>       7.70037500       0.00000000       0.00000000 </v>
    <v>       0.00000000       7.70037500       0.00000000 </v>
    <v>       0.00000000       0.00000000      22.25999800 </v>
   </varray>
   <i name="volume">   1319.92383604 </i>
   <varray name="rec_basis" >
    <v>       0.12986381       0.00000000       0.00000000 </v>
    <v>       0.00000000       0.12986381       0.00000000 </v>
    <v>       0.00000000       0.00000000       0.04492363 </v>
   </varray>
  </crystal>
  <varray name="positions" >
   <v>       0.16666708       0.16666708       0.00000000 </v>
   <v>       0.50000110       0.16666708       0.00000000 </v>
   <v>       0.83333526       0.16666708       0.00000000 </v>
   <v>       0.16666708       0.50000110       0.00000000 </v>
   <v>       0.50000110       0.50000110       0.00000000 </v>
   <v>       0.83333526       0.50000110       0.00000000 </v>
   <v>       0.16666708       0.83333526       0.00000000 </v>
   <v>       0.50000110       0.83333526       0.00000000 </v>
   <v>       0.83333526       0.83333526       0.00000000 </v>
   <v>       0.00000000       0.00000000       0.08153640 </v>
   <v>       0.33333416       0.00000000       0.08153640 </v>
   <v>       0.66666818       0.00000000       0.08153640 </v>
   <v>       0.00000000       0.33333416       0.08153640 </v>
   <v>       0.33333416       0.33333416       0.08153640 </v>
   <v>       0.66666818       0.33333416       0.08153640 </v>
   <v>       0.00000000       0.66666818       0.08153640 </v>
   <v>       0.33333416       0.66666818       0.08153640 </v>
   <v>       0.66666818       0.66666818       0.08153640 </v>
   <v>       0.16749132       0.16755171       0.16633056 </v>
   <v>       0.50023135       0.16854569       0.16659426 </v>
   <v>       0.83382822       0.17046235       0.16772441 </v>
   <v>       0.16775183       0.49998007       0.16359364 </v>
   <v>       0.49814808       0.49989721       0.16238928 </v>
   <v>       0.83170417       0.50060588       0.16558160 </v>
   <v>       0.16698693       0.83269425       0.16625136 </v>
   <v>       0.49959450       0.83143159       0.16657733 </v>
   <v>       0.83341318       0.83126432       0.16761520 </v>
   <v>       0.00132513       0.00111748       0.24773960 </v>
   <v>       0.33395555       0.99946665       0.24757473 </v>
   <v>       0.66657143       0.00089502       0.24789836 </v>
   <v>       0.00244988       0.33616610       0.24967743 </v>
   <v>       0.33544626       0.33422567       0.25154063 </v>
   <v>       0.66548343       0.33587572       0.25168187 </v>
   <v>       0.00045024       0.66549733       0.24947307 </v>
   <v>       0.33368154       0.66454491       0.25157729 </v>
   <v>       0.66443608       0.66598536       0.25129167 </v>
  </varray>
  <varray name="selective"  type="logical" >
   <v type="logical" >  F  F  F </v>
   <v type="logical" >  F  F  F </v>
   <v type="logical" >  F  F  F </v>
   <v type="logical" >  F  F  F </v>
   <v type="logical" >  F  F  F </v>
   <v type="logical" >  F  F  F </v>
   <v type="logical" >  F  F  F </v>
   <v type="logical" >  F  F  F </v>
   <v type="logical" >  F  F  F </v>
   <v type="logical" >  F  F  F </v>
   <v type="logical" >  F  F  F </v>
   <v type="logical" >  F  F  F </v>
   <v type="logical" >  F  F  F </v>
   <v type="logical" >  F  F  F </v>
   <v type="logical" >  F  F  F </v>
   <v type="logical" >  F  F  F </v>
   <v type="logical" >  F  F  F </v>
   <v type="logical" >  F  F  F </v>
   <v type="logical" >  T  T  T </v>
   <v type="logical" >  T  T  T </v>
   <v type="logical" >  T  T  T </v>
   <v type="logical" >  T  T  T </v>
   <v type="logical" >  T  T  T </v>
   <v type="logical" >  T  T  T </v>
   <v type="logical" >  T  T  T </v>
   <v type="logical" >  T  T  T </v>
   <v type="logical" >  T  T  T </v>
   <v type="logical" >  T  T  T </v>
   <v type="logical" >  T  T  T </v>
   <v type="logical" >  T  T  T </v>
   <v type="logical" >  T  T  T </v>
   <v type="logical" >  T  T  T </v>
   <v type="logical" >  T  T  T </v>
   <v type="logical" >  T  T  T </v>
   <v type="logical" >  T  T  T </v>
   <v type="logical" >  T  T  T </v>
  </varray>
  <nose>
   <v>      -3.00000000       0.00000000       0.00010000       0.00010000 </v>
  </nose>
 </structure>
</modeling>
