  36  36   0   0
  0.3666455E+02  0.7700375E-09  0.7700375E-09  0.2226000E-08  0.5000000E-15
  1.000000000000000E-004
  CAR 
 unknown system                          
      7.99756077    -10.82057670  301     -0.40949062      1.00000000
    -10.821  0.0000E+00  0.0000E+00
    -10.758  0.0000E+00  0.0000E+00
    -10.695  0.0000E+00  0.0000E+00
    -10.632  0.0000E+00  0.0000E+00
    -10.570  0.0000E+00  0.0000E+00
    -10.507  0.0000E+00  0.0000E+00
    -10.444  0.1360E-25  0.8528E-27
    -10.381  0.1760E-23  0.1113E-24
    -10.319  0.1873E-21  0.1186E-22
    -10.256  0.1626E-19  0.1032E-20
    -10.193  0.1152E-17  0.7329E-19
    -10.131  0.6648E-16  0.4244E-17
    -10.068  0.3124E-14  0.2002E-15
    -10.005  0.1193E-12  0.7686E-14
     -9.942  0.3710E-11  0.2404E-12
     -9.880  0.9332E-10  0.6094E-11
     -9.817  0.1898E-08  0.1252E-09
     -9.754  0.3114E-07  0.2078E-08
     -9.691  0.4103E-06  0.2781E-07
     -9.629  0.4320E-05  0.2988E-06
     -9.566  0.3609E-04  0.2563E-05
     -9.503  0.2367E-03  0.1741E-04
     -9.441  0.1197E-02  0.9248E-04
     -9.378  0.4524E-02  0.3763E-03
     -9.315  0.1195E-01  0.1126E-02
     -9.252  0.1777E-01  0.2241E-02
     -9.190 -0.5708E-02  0.1883E-02
     -9.127 -0.9718E-01 -0.4213E-02
     -9.064 -0.2108E+00 -0.1743E-01
     -9.001 -0.9461E-01 -0.2337E-01
     -8.939  0.5695E+00  0.1236E-01
     -8.876  0.1655E+01  0.1162E+00
     -8.813  0.2355E+01  0.2639E+00
     -8.751  0.1978E+01  0.3880E+00
     -8.688  0.1060E+01  0.4544E+00
     -8.625  0.1100E+01  0.5234E+00
     -8.562  0.2728E+01  0.6945E+00
     -8.500  0.4577E+01  0.9817E+00
     -8.437  0.4709E+01  0.1277E+01
     -8.374  0.3003E+01  0.1465E+01
     -8.311  0.1304E+01  0.1547E+01
     -8.249  0.1078E+01  0.1615E+01
     -8.186  0.1778E+01  0.1726E+01
     -8.123  0.1949E+01  0.1849E+01
     -8.061  0.1378E+01  0.1935E+01
     -7.998  0.1378E+01  0.2021E+01
     -7.935  0.2789E+01  0.2196E+01
     -7.872  0.4441E+01  0.2475E+01
     -7.810  0.4464E+01  0.2755E+01
     -7.747  0.2907E+01  0.2937E+01
     -7.684  0.1885E+01  0.3056E+01
     -7.621  0.2776E+01  0.3230E+01
     -7.559  0.4356E+01  0.3503E+01
     -7.496  0.4529E+01  0.3787E+01
     -7.433  0.3132E+01  0.3983E+01
     -7.371  0.1809E+01  0.4097E+01
     -7.308  0.1443E+01  0.4187E+01
     -7.245  0.1273E+01  0.4267E+01
     -7.182  0.1024E+01  0.4331E+01
     -7.120  0.2339E+01  0.4478E+01
     -7.057  0.6427E+01  0.4881E+01
     -6.994  0.1096E+02  0.5569E+01
     -6.931  0.1187E+02  0.6314E+01
     -6.869  0.8649E+01  0.6856E+01
     -6.806  0.5320E+01  0.7190E+01
     -6.743  0.5003E+01  0.7504E+01
     -6.681  0.6167E+01  0.7891E+01
     -6.618  0.5853E+01  0.8258E+01
     -6.555  0.4157E+01  0.8519E+01
     -6.492  0.3236E+01  0.8722E+01
     -6.430  0.3555E+01  0.8945E+01
     -6.367  0.3837E+01  0.9185E+01
     -6.304  0.4051E+01  0.9439E+01
     -6.241  0.5664E+01  0.9795E+01
     -6.179  0.8698E+01  0.1034E+02
     -6.116  0.1083E+02  0.1102E+02
     -6.053  0.1008E+02  0.1165E+02
     -5.991  0.7047E+01  0.1209E+02
     -5.928  0.4347E+01  0.1237E+02
     -5.865  0.4423E+01  0.1264E+02
     -5.802  0.7222E+01  0.1310E+02
     -5.740  0.1000E+02  0.1373E+02
     -5.677  0.1042E+02  0.1438E+02
     -5.614  0.9174E+01  0.1495E+02
     -5.551  0.8476E+01  0.1549E+02
     -5.489  0.9080E+01  0.1606E+02
     -5.426  0.1011E+02  0.1669E+02
     -5.363  0.1082E+02  0.1737E+02
     -5.301  0.1147E+02  0.1809E+02
     -5.238  0.1315E+02  0.1891E+02
     -5.175  0.1719E+02  0.1999E+02
     -5.112  0.2318E+02  0.2145E+02
     -5.050  0.2766E+02  0.2318E+02
     -4.987  0.2745E+02  0.2490E+02
     -4.924  0.2483E+02  0.2646E+02
     -4.861  0.2573E+02  0.2807E+02
     -4.799  0.3185E+02  0.3007E+02
     -4.736  0.3874E+02  0.3250E+02
     -4.673  0.4230E+02  0.3515E+02
     -4.611  0.4349E+02  0.3788E+02
     -4.548  0.4640E+02  0.4079E+02
     -4.485  0.5462E+02  0.4422E+02
     -4.422  0.6840E+02  0.4851E+02
     -4.360  0.8264E+02  0.5369E+02
     -4.297  0.8978E+02  0.5933E+02
     -4.234  0.8709E+02  0.6479E+02
     -4.172  0.7907E+02  0.6975E+02
     -4.109  0.7161E+02  0.7424E+02
     -4.046  0.6647E+02  0.7841E+02
     -3.983  0.6286E+02  0.8235E+02
     -3.921  0.6178E+02  0.8623E+02
     -3.858  0.6559E+02  0.9034E+02
     -3.795  0.7342E+02  0.9495E+02
     -3.732  0.8092E+02  0.1000E+03
     -3.670  0.8663E+02  0.1055E+03
     -3.607  0.9420E+02  0.1114E+03
     -3.544  0.1046E+03  0.1179E+03
     -3.482  0.1107E+03  0.1249E+03
     -3.419  0.1058E+03  0.1315E+03
     -3.356  0.9524E+02  0.1375E+03
     -3.293  0.9401E+02  0.1434E+03
     -3.231  0.1122E+03  0.1504E+03
     -3.168  0.1429E+03  0.1594E+03
     -3.105  0.1649E+03  0.1697E+03
     -3.042  0.1606E+03  0.1798E+03
     -2.980  0.1337E+03  0.1882E+03
     -2.917  0.1073E+03  0.1949E+03
     -2.854  0.1024E+03  0.2013E+03
     -2.792  0.1204E+03  0.2089E+03
     -2.729  0.1468E+03  0.2181E+03
     -2.666  0.1642E+03  0.2284E+03
     -2.603  0.1641E+03  0.2387E+03
     -2.541  0.1525E+03  0.2483E+03
     -2.478  0.1449E+03  0.2574E+03
     -2.415  0.1507E+03  0.2668E+03
     -2.352  0.1623E+03  0.2770E+03
     -2.290  0.1680E+03  0.2875E+03
     -2.227  0.1691E+03  0.2981E+03
     -2.164  0.1783E+03  0.3093E+03
     -2.102  0.1990E+03  0.3218E+03
     -2.039  0.2174E+03  0.3354E+03
     -1.976  0.2165E+03  0.3490E+03
     -1.913  0.1897E+03  0.3609E+03
     -1.851  0.1417E+03  0.3698E+03
     -1.788  0.8684E+02  0.3752E+03
     -1.725  0.4361E+02  0.3780E+03
     -1.662  0.2225E+02  0.3794E+03
     -1.600  0.1816E+02  0.3805E+03
     -1.537  0.1937E+02  0.3817E+03
     -1.474  0.1816E+02  0.3829E+03
     -1.412  0.1417E+02  0.3838E+03
     -1.349  0.1009E+02  0.3844E+03
     -1.286  0.7930E+01  0.3849E+03
     -1.223  0.8518E+01  0.3854E+03
     -1.161  0.1166E+02  0.3862E+03
     -1.098  0.1557E+02  0.3871E+03
     -1.035  0.1773E+02  0.3882E+03
     -0.972  0.1706E+02  0.3893E+03
     -0.910  0.1474E+02  0.3902E+03
     -0.847  0.1282E+02  0.3910E+03
     -0.784  0.1235E+02  0.3918E+03
     -0.722  0.1261E+02  0.3926E+03
     -0.659  0.1222E+02  0.3934E+03
     -0.596  0.1099E+02  0.3941E+03
     -0.533  0.1020E+02  0.3947E+03
     -0.471  0.1047E+02  0.3954E+03
     -0.408  0.1052E+02  0.3960E+03
     -0.345  0.9304E+01  0.3966E+03
     -0.282  0.8328E+01  0.3971E+03
     -0.220  0.1015E+02  0.3978E+03
     -0.157  0.1458E+02  0.3987E+03
     -0.094  0.1808E+02  0.3998E+03
     -0.032  0.1780E+02  0.4009E+03
      0.031  0.1457E+02  0.4018E+03
      0.094  0.1121E+02  0.4025E+03
      0.157  0.9356E+01  0.4031E+03
      0.219  0.8970E+01  0.4037E+03
      0.282  0.9357E+01  0.4043E+03
      0.345  0.9905E+01  0.4049E+03
      0.408  0.1035E+02  0.4055E+03
      0.470  0.1084E+02  0.4062E+03
      0.533  0.1167E+02  0.4070E+03
      0.596  0.1286E+02  0.4078E+03
      0.658  0.1419E+02  0.4087E+03
      0.721  0.1542E+02  0.4096E+03
      0.784  0.1598E+02  0.4106E+03
      0.847  0.1503E+02  0.4116E+03
      0.909  0.1230E+02  0.4123E+03
      0.972  0.8566E+01  0.4129E+03
      1.035  0.5208E+01  0.4132E+03
      1.098  0.3761E+01  0.4134E+03
      1.160  0.5348E+01  0.4138E+03
      1.223  0.9214E+01  0.4144E+03
      1.286  0.1238E+02  0.4151E+03
      1.348  0.1211E+02  0.4159E+03
      1.411  0.9040E+01  0.4165E+03
      1.474  0.7104E+01  0.4169E+03
      1.537  0.9721E+01  0.4175E+03
      1.599  0.1573E+02  0.4185E+03
      1.662  0.2023E+02  0.4198E+03
      1.725  0.1983E+02  0.4210E+03
      1.788  0.1549E+02  0.4220E+03
      1.850  0.9929E+01  0.4226E+03
      1.913  0.4816E+01  0.4229E+03
      1.976  0.1242E+01  0.4230E+03
      2.038  0.5881E+00  0.4230E+03
      2.101  0.3707E+01  0.4233E+03
      2.164  0.9955E+01  0.4239E+03
      2.227  0.1696E+02  0.4249E+03
      2.289  0.2106E+02  0.4263E+03
      2.352  0.1939E+02  0.4275E+03
      2.415  0.1282E+02  0.4283E+03
      2.478  0.5949E+01  0.4287E+03
      2.540  0.3186E+01  0.4289E+03
      2.603  0.5549E+01  0.4292E+03
      2.666  0.1115E+02  0.4299E+03
      2.728  0.1731E+02  0.4310E+03
      2.791  0.2128E+02  0.4323E+03
      2.854  0.2063E+02  0.4336E+03
      2.917  0.1545E+02  0.4346E+03
      2.979  0.9648E+01  0.4352E+03
      3.042  0.7701E+01  0.4357E+03
      3.105  0.1016E+02  0.4363E+03
      3.168  0.1394E+02  0.4372E+03
      3.230  0.1634E+02  0.4382E+03
      3.293  0.1694E+02  0.4393E+03
      3.356  0.1650E+02  0.4403E+03
      3.418  0.1591E+02  0.4413E+03
      3.481  0.1607E+02  0.4423E+03
      3.544  0.1756E+02  0.4434E+03
      3.607  0.2048E+02  0.4447E+03
      3.669  0.2408E+02  0.4462E+03
      3.732  0.2629E+02  0.4479E+03
      3.795  0.2465E+02  0.4494E+03
      3.858  0.1945E+02  0.4506E+03
      3.920  0.1419E+02  0.4515E+03
      3.983  0.1140E+02  0.4522E+03
      4.046  0.1002E+02  0.4529E+03
      4.108  0.8293E+01  0.4534E+03
      4.171  0.6629E+01  0.4538E+03
      4.234  0.6397E+01  0.4542E+03
      4.297  0.8309E+01  0.4547E+03
      4.359  0.1270E+02  0.4555E+03
      4.422  0.1890E+02  0.4567E+03
      4.485  0.2389E+02  0.4582E+03
      4.548  0.2410E+02  0.4597E+03
      4.610  0.1939E+02  0.4609E+03
      4.673  0.1382E+02  0.4618E+03
      4.736  0.1180E+02  0.4625E+03
      4.798  0.1364E+02  0.4634E+03
      4.861  0.1586E+02  0.4644E+03
      4.924  0.1628E+02  0.4654E+03
      4.987  0.1691E+02  0.4665E+03
      5.049  0.2022E+02  0.4677E+03
      5.112  0.2442E+02  0.4693E+03
      5.175  0.2536E+02  0.4709E+03
      5.238  0.2217E+02  0.4723E+03
      5.300  0.1829E+02  0.4734E+03
      5.363  0.1715E+02  0.4745E+03
      5.426  0.1859E+02  0.4756E+03
      5.488  0.1962E+02  0.4769E+03
      5.551  0.1767E+02  0.4780E+03
      5.614  0.1290E+02  0.4788E+03
      5.677  0.7641E+01  0.4793E+03
      5.739  0.3940E+01  0.4795E+03
      5.802  0.2091E+01  0.4796E+03
      5.865  0.1348E+01  0.4797E+03
      5.928  0.1136E+01  0.4798E+03
      5.990  0.1171E+01  0.4799E+03
      6.053  0.1112E+01  0.4799E+03
      6.116  0.7512E+00  0.4800E+03
      6.178  0.2679E+00  0.4800E+03
      6.241 -0.3484E-01  0.4800E+03
      6.304 -0.9302E-01  0.4800E+03
      6.367 -0.4289E-01  0.4800E+03
      6.429 -0.1099E-02  0.4800E+03
      6.492  0.9283E-02  0.4800E+03
      6.555  0.6044E-02  0.4800E+03
      6.618  0.2271E-02  0.4800E+03
      6.680  0.5994E-03  0.4800E+03
      6.743  0.1184E-03  0.4800E+03
      6.806  0.1805E-04  0.4800E+03
      6.868  0.2160E-05  0.4800E+03
      6.931  0.2052E-06  0.4800E+03
      6.994  0.1557E-07  0.4800E+03
      7.057  0.9492E-09  0.4800E+03
      7.119  0.4666E-10  0.4800E+03
      7.182  0.1856E-11  0.4800E+03
      7.245  0.5929E-13  0.4800E+03
      7.308  0.1770E-14  0.4800E+03
      7.370  0.0000E+00  0.4800E+03
      7.433  0.0000E+00  0.4800E+03
      7.496  0.0000E+00  0.4800E+03
      7.558  0.0000E+00  0.4800E+03
      7.621  0.0000E+00  0.4800E+03
      7.684  0.0000E+00  0.4800E+03
      7.747  0.0000E+00  0.4800E+03
      7.809  0.0000E+00  0.4800E+03
      7.872  0.0000E+00  0.4800E+03
      7.935  0.0000E+00  0.4800E+03
      7.998  0.0000E+00  0.4800E+03
