       N       E                     dE             d eps       ncg     rms          rms(c)
RMM:   1     0.314462147307E+04    0.31446E+04   -0.15841E+05  1920   0.194E+03
RMM:   2     0.710704860870E+03   -0.24339E+04   -0.27476E+04  1920   0.363E+02
RMM:   3     0.173802265098E+03   -0.53690E+03   -0.54726E+03  1920   0.243E+02
RMM:   4    -0.406960301457E+02   -0.21450E+03   -0.93256E+02  1920   0.121E+02
RMM:   5    -0.949520594604E+02   -0.54256E+02   -0.34949E+02  1920   0.642E+01
RMM:   6    -0.117759569334E+03   -0.22808E+02   -0.17224E+02  1920   0.518E+01
RMM:   7    -0.129111111608E+03   -0.11352E+02   -0.93738E+01  1920   0.337E+01
RMM:   8    -0.134967688452E+03   -0.58566E+01   -0.50026E+01  1920   0.269E+01
RMM:   9    -0.140666457358E+03   -0.56988E+01   -0.54151E+01  5686   0.176E+01
RMM:  10    -0.140753591856E+03   -0.87134E-01   -0.19730E+00  4372   0.502E+00
RMM:  11    -0.140809225277E+03   -0.55633E-01   -0.47173E-01  5729   0.936E-01
RMM:  12    -0.140809876568E+03   -0.65129E-03   -0.64905E-03  4350   0.277E-01    0.465E+01
RMM:  13    -0.328568641174E+03   -0.18776E+03   -0.89814E+02  5198   0.118E+02    0.904E+01
RMM:  14    -0.145317919017E+03    0.18325E+03   -0.19925E+02  4009   0.645E+01    0.359E+01
RMM:  15    -0.111509752574E+03    0.33808E+02   -0.88561E+01  4061   0.482E+01    0.118E+01
RMM:  16    -0.109264435299E+03    0.22453E+01   -0.11821E+01  4103   0.158E+01    0.721E+00
RMM:  17    -0.108283884927E+03    0.98055E+00   -0.60336E+00  4132   0.892E+00    0.177E+00
RMM:  18    -0.108308907033E+03   -0.25022E-01   -0.11468E+00  4758   0.230E+00    0.214E+00
RMM:  19    -0.108204743897E+03    0.10416E+00   -0.36086E-01  4152   0.302E+00    0.654E-01
RMM:  20    -0.108196152209E+03    0.85917E-02   -0.90605E-02  4170   0.149E+00    0.780E-01
RMM:  21    -0.108181434097E+03    0.14718E-01   -0.36403E-02  4141   0.940E-01    0.129E-01
RMM:  22    -0.108175629539E+03    0.58046E-02   -0.55073E-03  4252   0.197E-01    0.104E-01
RMM:  23    -0.108172909633E+03    0.27199E-02   -0.12967E-03  4101   0.115E-01    0.965E-02
RMM:  24    -0.108171289032E+03    0.16206E-02   -0.22877E-03  4007   0.109E-01    0.465E-02
RMM:  25    -0.108171791759E+03   -0.50273E-03   -0.23129E-04  4081   0.548E-02    0.394E-02
RMM:  26    -0.108172926230E+03   -0.11345E-02   -0.27211E-04  4013   0.601E-02    0.235E-02
RMM:  27    -0.108173925044E+03   -0.99881E-03   -0.17775E-04  3792   0.319E-02    0.153E-02
RMM:  28    -0.108174111797E+03   -0.18675E-03   -0.25271E-05  2548   0.170E-02    0.956E-03
RMM:  29    -0.108174348618E+03   -0.23682E-03   -0.34697E-05  2506   0.145E-02    0.614E-03
RMM:  30    -0.108174422102E+03   -0.73483E-04   -0.17652E-05  2332   0.141E-02    0.587E-03
RMM:  31    -0.108174433365E+03   -0.11263E-04   -0.37121E-06  2351   0.754E-03    0.545E-03
RMM:  32    -0.108174485003E+03   -0.51638E-04   -0.19721E-06  2425   0.449E-03    0.572E-03
RMM:  33    -0.108174587911E+03   -0.10291E-03   -0.57612E-06  2310   0.583E-03    0.493E-03
RMM:  34    -0.108174613146E+03   -0.25235E-04   -0.17320E-06  2277   0.520E-03    0.333E-03
RMM:  35    -0.108174630209E+03   -0.17064E-04   -0.12693E-06  2317   0.317E-03    0.164E-03
RMM:  36    -0.108174690622E+03   -0.60413E-04   -0.17141E-05  2391   0.383E-03    0.163E-03
RMM:  37    -0.108174685357E+03    0.52647E-05   -0.11535E-06  2193   0.323E-03
   1 F= -.10817469E+03 E0= -.10817278E+03  d E =-.762592E-02
