 vasp.5.4.4.18Apr17-6-g9f103f2a35 (build Mar 06 2021 22:04:06) complex          
  
 executed on             LinuxIFC date 2024.03.06  14:29:20
 running on   16 total cores
 distrk:  each k-point on   16 cores,    1 groups
 distr:  one band on NCORES_PER_BAND=   1 cores,   16 groups


--------------------------------------------------------------------------------------------------------


 INCAR:
 POTCAR:    PAW_PBE Cu 22Jun2005                  

 ----------------------------------------------------------------------------- 
|                                                                             |
|           W    W    AA    RRRRR   N    N  II  N    N   GGGG   !!!           |
|           W    W   A  A   R    R  NN   N  II  NN   N  G    G  !!!           |
|           W    W  A    A  R    R  N N  N  II  N N  N  G       !!!           |
|           W WW W  AAAAAA  RRRRR   N  N N  II  N  N N  G  GGG   !            |
|           WW  WW  A    A  R   R   N   NN  II  N   NN  G    G                |
|           W    W  A    A  R    R  N    N  II  N    N   GGGG   !!!           |
|                                                                             |
|      For optimal performance we recommend to set                            |
|        NCORE= 4 - approx SQRT( number of cores)                             |
|      NCORE specifies how many cores store one orbital (NPAR=cpu/NCORE).     |
|      This setting can  greatly improve the performance of VASP for DFT.     |
|      The default,   NCORE=1            might be grossly inefficient         |
|      on modern multi-core architectures or massively parallel machines.     |
|      Do your own testing !!!!                                               |
|      Unfortunately you need to use the default for GW and RPA calculations. |
|      (for HF NCORE is supported but not extensively tested yet)             |
|                                                                             |
 ----------------------------------------------------------------------------- 

 POTCAR:    PAW_PBE Cu 22Jun2005                  
   VRHFIN =Cu: d10 p1                                                           
   LEXCH  = PE                                                                  
   EATOM  =  1390.9808 eV,  102.2342 Ry                                         
                                                                                
   TITEL  = PAW_PBE Cu 22Jun2005                                                
   LULTRA =        F    use ultrasoft PP ?                                      
   IUNSCR =        1    unscreen: 0-lin 1-nonlin 2-no                           
   RPACOR =    2.000    partial core radius                                     
   POMASS =   63.546; ZVAL   =   11.000    mass and valenz                      
   RCORE  =    2.300    outmost cutoff radius                                   
   RWIGS  =    2.200; RWIGS  =    1.164    wigner-seitz radius (au A)           
   ENMAX  =  295.446; ENMIN  =  221.585 eV                                      
   ICORE  =        3    local potential                                         
   LCOR   =        T    correct aug charges                                     
   LPAW   =        T    paw PP                                                  
   EAUG   =  586.980                                                            
   DEXC   =    0.000                                                            
   RMAX   =    2.344    core radius for proj-oper                               
   RAUG   =    1.300    factor for augmentation sphere                          
   RDEP   =    2.302    radius for radial grids                                 
   RDEPT  =    1.771    core radius for aug-charge                              
                                                                                
   Atomic configuration                                                         
    9 entries                                                                   
     n  l   j            E        occ.                                          
     1  0  0.50     -8850.2468   2.0000                                         
     2  0  0.50     -1062.3498   2.0000                                         
     2  1  1.50      -916.8226   6.0000                                         
     3  0  0.50      -114.6929   2.0000                                         
     3  1  1.50       -72.1325   6.0000                                         
     3  2  2.50        -5.0394  10.0000                                         
     4  0  0.50        -4.6097   1.0000                                         
     4  1  0.50        -4.0817   0.0000                                         
     4  3  2.50        -1.3606   0.0000                                         
   Description                                                                  
     l       E           TYP  RCUT    TYP  RCUT                                 
     2     -5.0393973     23  2.200                                             
     2     10.8846608     23  2.200                                             
     0     -4.6097109     23  2.200                                             
     0      8.2520465     23  2.200                                             
     1     -2.7211652     23  2.200                                             
     1     21.7055443     23  2.200                                             
     3      2.7211652     23  2.300                                             
  local pseudopotential read in
  partial core-charges read in
  partial kinetic energy density read in
  atomic valenz-charges read in
  non local Contribution for L=           2  read in
    real space projection operators read in
  non local Contribution for L=           2  read in
    real space projection operators read in
  non local Contribution for L=           0  read in
    real space projection operators read in
  non local Contribution for L=           0  read in
    real space projection operators read in
  non local Contribution for L=           1  read in
    real space projection operators read in
  non local Contribution for L=           1  read in
    real space projection operators read in
    PAW grid and wavefunctions read in
 
   number of l-projection  operators is LMAX  =           6
   number of lm-projection operators is LMMAX =          18
 
 Optimization of the real space projectors (new method)

 maximal supplied QI-value         = 16.25
 optimisation between [QCUT,QGAM] = [ 11.86, 23.89] = [ 39.41,159.82] Ry 
 Optimized for a Real-space Cutoff    1.37 Angstroem

   l    n(q)    QCUT    max X(q) W(low)/X(q) W(high)/X(q)  e(spline) 
   2      9    11.864     4.610    0.26E-03    0.41E-03    0.20E-06
   2      9    11.864     8.522    0.43E-03    0.67E-03    0.35E-06
   0     10    11.864    51.609    0.83E-04    0.11E-03    0.13E-06
   0     10    11.864    27.747    0.78E-04    0.11E-03    0.12E-06
   1      9    11.864    20.408    0.13E-03    0.42E-04    0.22E-06
   1      9    11.864    13.425    0.12E-03    0.35E-04    0.19E-06

 ----------------------------------------------------------------------------- 
|                                                                             |
|  ADVICE TO THIS USER RUNNING 'VASP/VAMP'   (HEAR YOUR MASTER'S VOICE ...):  |
|                                                                             |
|      You enforced a specific xc-type in the INCAR file,                     |
|      a different type was found on the POTCAR file                          |
|          I HOPE YOU KNOW, WHAT YOU ARE  DOING                               |
|                                                                             |
 ----------------------------------------------------------------------------- 

  PAW_PBE Cu 22Jun2005                  :
 energy of atom  1       EATOM=-1390.9808
 kinetic energy error for atom=    0.0036 (will be added to EATOM!!)
 
 
 POSCAR: Cu                                      
  positions in direct lattice
  velocities in cartesian coordinates
 exchange correlation table for  LEXCH =        9
   RHO(1)=    0.500       N(1)  =     2000
   RHO(2)=  100.500       N(2)  =     4000

 VTST: version 3.2, (02/03/18)

 CHAIN: initializing optimizer
 
 OPT: Using VASP Dynamics algorithm
 CHAIN: Read ICHAIN            0
 
 POSCAR: Cu                                      
  positions in direct lattice
  velocities in cartesian coordinates
 


--------------------------------------------------------------------------------------------------------


 ion  position               nearest neighbor table
   1  0.167  0.167  0.000-   3 2.57   7 2.57   4 2.57   2 2.57  10 2.57  11 2.57  13 2.57  14 2.57

   2  0.500  0.167  0.000-   8 2.57   5 2.57   1 2.57  11 2.57  14 2.57  12 2.57  15 2.57   3 2.57

   3  0.833  0.167  0.000-   1 2.57   9 2.57  10 2.57  13 2.57   6 2.57  12 2.57  15 2.57   2 2.57

   4  0.167  0.500  0.000-   6 2.57   5 2.57   1 2.57  13 2.57  14 2.57  16 2.57  17 2.57   7 2.57

   5  0.500  0.500  0.000-  14 2.57   4 2.57   2 2.57  15 2.57  17 2.57  18 2.57   6 2.57   8 2.57

   6  0.833  0.500  0.000-   4 2.57  13 2.57  16 2.57   3 2.57  15 2.57  18 2.57   5 2.57   9 2.57

   7  0.167  0.833  0.000-   1 2.57   9 2.57  10 2.57  11 2.57   8 2.57  16 2.57  17 2.57   4 2.57

   8  0.500  0.833  0.000-   2 2.57  11 2.57  12 2.57   7 2.57  17 2.57  18 2.57   5 2.57   9 2.57

   9  0.833  0.833  0.000-  10 2.57   7 2.57   3 2.57  12 2.57  16 2.57  18 2.57   6 2.57   8 2.57

  10  0.000  0.000  0.082-   9 2.57  12 2.57  16 2.57   7 2.57   3 2.57   1 2.57  13 2.57  11 2.57
                            25 2.62  19 2.63  27 2.65  21 2.65
  11  0.333  0.000  0.082-  17 2.57   8 2.57   7 2.57  12 2.57   2 2.57   1 2.57  14 2.57  10 2.57
                            25 2.62  19 2.62  26 2.63  20 2.63
  12  0.667  0.000  0.082-  10 2.57  18 2.57   9 2.57   8 2.57  11 2.57   3 2.57   2 2.57  15 2.57
                            20 2.63  26 2.63  27 2.65  21 2.66
  13  0.000  0.333  0.082-  15 2.57   6 2.57   3 2.57  16 2.57   4 2.57   1 2.57  10 2.57  14 2.57
                            22 2.58  24 2.62  19 2.62  21 2.63
  14  0.333  0.333  0.082-  23 2.55   5 2.57  17 2.57  15 2.57   4 2.57   2 2.57   1 2.57  13 2.57
                            11 2.57  22 2.57  19 2.61  20 2.62
  15  0.667  0.333  0.082-  23 2.56  13 2.57  18 2.57  14 2.57   6 2.57   5 2.57   3 2.57   2 2.57
                            12 2.57  24 2.60  20 2.61  21 2.63
  16  0.000  0.667  0.082-  10 2.57  18 2.57   9 2.57   6 2.57  13 2.57   7 2.57   4 2.57  17 2.57
                            22 2.58  24 2.61  25 2.62  27 2.63
  17  0.333  0.667  0.082-  23 2.55  11 2.57  18 2.57  14 2.57   8 2.57   5 2.57   7 2.57   4 2.57
                            16 2.57  22 2.57  25 2.61  26 2.61
  18  0.667  0.667  0.082-  23 2.56  16 2.57  12 2.57  17 2.57  15 2.57   9 2.57   6 2.57   8 2.57
                             5 2.57  24 2.60  26 2.62  27 2.63
  19  0.167  0.168  0.166-  22 2.56  28 2.56  20 2.56  29 2.57  21 2.57  25 2.58  31 2.60  14 2.61
                            13 2.62  11 2.62  10 2.63  32 2.63
  20  0.500  0.169  0.167-  23 2.55  19 2.56  30 2.57  29 2.57  21 2.57  26 2.60  32 2.61  15 2.61
                            14 2.62  33 2.62  12 2.63  11 2.63
  21  0.834  0.170  0.168-  24 2.54  28 2.56  30 2.56  20 2.57  19 2.57  31 2.58  33 2.61  27 2.61
                            13 2.63  15 2.63  10 2.65  12 2.66
  22  0.168  0.500  0.164-  23 2.54  19 2.56  25 2.56  14 2.57  17 2.57  13 2.58  16 2.58  24 2.59
                            31 2.62  34 2.63  35 2.66  32 2.67
  23  0.498  0.500  0.162-  22 2.54  14 2.55  17 2.55  20 2.55  26 2.55  15 2.56  18 2.56  24 2.57
                            32 2.67  35 2.67  36 2.68  33 2.68
  24  0.832  0.501  0.166-  21 2.54  27 2.55  23 2.57  22 2.59  18 2.60  15 2.60  34 2.61  16 2.61
                            31 2.61  13 2.62  33 2.63  36 2.63
  25  0.167  0.833  0.166-  26 2.56  22 2.56  29 2.57  27 2.57  28 2.57  19 2.58  34 2.59  17 2.61
                            16 2.62  11 2.62  10 2.62  35 2.63
  26  0.500  0.831  0.167-  23 2.55  29 2.56  25 2.56  27 2.57  30 2.58  20 2.60  36 2.61  17 2.61
                            18 2.62  35 2.62  11 2.63  12 2.63
  27  0.833  0.831  0.168-  24 2.55  30 2.56  28 2.56  25 2.57  34 2.57  26 2.57  36 2.60  21 2.61
                            16 2.63  18 2.63  10 2.65  12 2.65
  28  0.001  0.001  0.248-  21 2.56  29 2.56  27 2.56  19 2.56  25 2.57  30 2.58  31 2.58  34 2.58

  29  0.334  0.999  0.248-  26 2.56  30 2.56  28 2.56  25 2.57  20 2.57  19 2.57  32 2.58  35 2.58

  30  0.667  0.001  0.248-  21 2.56  27 2.56  29 2.56  20 2.57  26 2.58  28 2.58  36 2.58  33 2.58

  31  0.002  0.336  0.250-  34 2.54  32 2.56  21 2.58  28 2.58  33 2.60  19 2.60  24 2.61  22 2.62

  32  0.335  0.334  0.252-  33 2.54  35 2.54  31 2.56  29 2.58  20 2.61  19 2.63  22 2.67  23 2.67

  33  0.665  0.336  0.252-  32 2.54  36 2.54  30 2.58  31 2.60  21 2.61  20 2.62  24 2.63  23 2.68

  34  0.000  0.665  0.249-  31 2.54  35 2.57  27 2.57  28 2.58  36 2.59  25 2.59  24 2.61  22 2.63

  35  0.334  0.665  0.252-  32 2.54  36 2.55  34 2.57  29 2.58  26 2.62  25 2.63  22 2.66  23 2.67

  36  0.664  0.666  0.251-  33 2.54  35 2.55  30 2.58  34 2.59  27 2.60  26 2.61  24 2.63  23 2.68

 

IMPORTANT INFORMATION: All symmetrisations will be switched off!
NOSYMM: (Re-)initialisation of all symmetry stuff for point group C_1.

 
 
 KPOINTS: KPOINTS created by Atomic Simulation Env

Automatic generation of k-mesh.
Space group operators:
 irot       det(A)        alpha          n_x          n_y          n_z        tau_x        tau_y        tau_z
    1     1.000000     0.000001     1.000000     0.000000     0.000000     0.000000     0.000000     0.000000
 
 Subroutine IBZKPT returns following result:
 ===========================================
 
 Found      8 irreducible k-points:
 
 Following reciprocal coordinates:
            Coordinates               Weight
  0.125000  0.125000  0.000000      2.000000
  0.375000  0.125000  0.000000      2.000000
 -0.375000  0.125000  0.000000      2.000000
 -0.125000  0.125000  0.000000      2.000000
  0.125000  0.375000  0.000000      2.000000
  0.375000  0.375000  0.000000      2.000000
 -0.375000  0.375000  0.000000      2.000000
 -0.125000  0.375000  0.000000      2.000000
 
 Following cartesian coordinates:
            Coordinates               Weight
  0.016233  0.016233  0.000000      2.000000
  0.048699  0.016233  0.000000      2.000000
 -0.048699  0.016233  0.000000      2.000000
 -0.016233  0.016233  0.000000      2.000000
  0.016233  0.048699  0.000000      2.000000
  0.048699  0.048699  0.000000      2.000000
 -0.048699  0.048699  0.000000      2.000000
 -0.016233  0.048699  0.000000      2.000000
 


--------------------------------------------------------------------------------------------------------




 Dimension of arrays:
   k-points           NKPTS =      8   k-points in BZ     NKDIM =      8   number of bands    NBANDS=    240
   number of dos      NEDOS =    301   number of ions     NIONS =     36
   non local maximal  LDIM  =      6   non local SUM 2l+1 LMDIM =     18
   total plane-waves  NPLWV = 294912
   max r-space proj   IRMAX =   2468   max aug-charges    IRDMAX=   6671
   dimension x,y,z NGX =    48 NGY =   48 NGZ =  128
   dimension x,y,z NGXF=    96 NGYF=   96 NGZF=  256
   support grid    NGXF=    96 NGYF=   96 NGZF=  256
   ions per type =              36
   NGX,Y,Z   is equivalent  to a cutoff of  10.36, 10.36,  9.56 a.u.
   NGXF,Y,Z  is equivalent  to a cutoff of  20.73, 20.73, 19.12 a.u.

 SYSTEM =  unknown system                          
 POSCAR =  Cu                                      

 Startparameter for this run:
   NWRITE =      2    write-flag & timer
   PREC   = normal    normal or accurate (medium, high low for compatibility)
   ISTART =      0    job   : 0-new  1-cont  2-samecut
   ICHARG =      2    charge: 1-file 2-atom 10-const
   ISPIN  =      1    spin polarized calculation?
   LNONCOLLINEAR =      F non collinear calculations
   LSORBIT =      F    spin-orbit coupling
   INIWAV =      1    electr: 0-lowe 1-rand  2-diag
   LASPH  =      F    aspherical Exc in radial PAW
   METAGGA=      F    non-selfconsistent MetaGGA calc.

 Electronic Relaxation 1
   ENCUT  =  544.0 eV  39.98 Ry    6.32 a.u.  14.64 14.64 42.33*2*pi/ulx,y,z
   ENINI  =  544.0     initial cutoff
   ENAUG  =  587.0 eV  augmentation charge cutoff
   NELM   =    400;   NELMIN=  2; NELMDL=-12     # of ELM steps 
   EDIFF  = 0.1E-04   stopping-criterion for ELM
   LREAL  =      T    real-space projection
   NLSPLINE    = F    spline interpolate recip. space projectors
   LCOMPAT=      F    compatible to vasp.4.4
   GGA_COMPAT  = T    GGA compatible to vasp.4.4-vasp.4.6
   LMAXPAW     = -100 max onsite density
   LMAXMIX     =    2 max onsite mixed and CHGCAR
   VOSKOWN=      1    Vosko Wilk Nusair interpolation
   ROPT   =   -0.00050
 Ionic relaxation
   EDIFFG = -.5E-01   stopping-criterion for IOM
   NSW    =      0    number of steps for IOM
   NBLOCK =      1;   KBLOCK =      1    inner block; outer block 
   IBRION =     -1    ionic relax: 0-MD 1-quasi-New 2-CG
   NFREE  =      0    steps in history (QN), initial steepest desc. (CG)
   ISIF   =      2    stress and relaxation
   IWAVPR =     10    prediction:  0-non 1-charg 2-wave 3-comb
   ISYM   =      0    0-nonsym 1-usesym 2-fastsym
   LCORR  =      T    Harris-Foulkes like correction to forces

   POTIM  = 0.5000    time-step for ionic-motion
   TEIN   =    0.0    initial temperature
   TEBEG  =    0.0;   TEEND  =   0.0 temperature during run
   SMASS  =  -3.00    Nose mass-parameter (am)
   estimated Nose-frequenzy (Omega)   =  0.10E-29 period in steps =****** mass=  -0.136E-26a.u.
   SCALEE = 1.0000    scale energy and forces
   NPACO  =    256;   APACO  = 16.0  distance and # of slots for P.C.
   PSTRESS=    0.0 pullay stress

  Mass of Ions in am
   POMASS =  63.55
  Ionic Valenz
   ZVAL   =  11.00
  Atomic Wigner-Seitz radii
   RWIGS  =  -1.00
  virtual crystal weights 
   VCA    =   1.00
   NELECT =     396.0000    total number of electrons
   NUPDOWN=      -1.0000    fix difference up-down

 DOS related values:
   EMIN   =  10.00;   EMAX   =-10.00  energy-range for DOS
   EFERMI =   0.00
   ISMEAR =     2;   SIGMA  =   0.20  broadening in eV -4-tet -1-fermi 0-gaus

 Electronic relaxation 2 (details)
   IALGO  =     48    algorithm
   LDIAG  =      T    sub-space diagonalisation (order eigenvalues)
   LSUBROT=      F    optimize rotation matrix (better conditioning)
   TURBO    =      0    0=normal 1=particle mesh
   IRESTART =      0    0=no restart 2=restart with 2 vectors
   NREBOOT  =      0    no. of reboots
   NMIN     =      0    reboot dimension
   EREF     =   0.00    reference energy to select bands
   IMIX   =      4    mixing-type and parameters
     AMIX     =   0.40;   BMIX     =  1.00
     AMIX_MAG =   1.60;   BMIX_MAG =  1.00
     AMIN     =   0.10
     WC   =   100.;   INIMIX=   1;  MIXPRE=   1;  MAXMIX= -45

 Intra band minimization:
   WEIMIN = 0.0000     energy-eigenvalue tresh-hold
   EBREAK =  0.10E-07  absolut break condition
   DEPER  =   0.30     relativ break condition  

   TIME   =   0.40     timestep for ELM

  volume/ion in A,a.u.               =      36.66       247.42
  Fermi-wavevector in a.u.,A,eV,Ry     =   1.095949  2.071043 16.342009  1.201104
  Thomas-Fermi vector in A             =   2.232282
 
 Write flags
   LWAVE        =      F    write WAVECAR
   LDOWNSAMPLE  =      F    k-point downsampling of WAVECAR
   LCHARG       =      F    write CHGCAR
   LVTOT        =      F    write LOCPOT, total local potential
   LVHAR        =      T    write LOCPOT, Hartree potential only
   LELF         =      F    write electronic localiz. function (ELF)
   LORBIT       =      0    0 simple, 1 ext, 2 COOP (PROOUT), +10 PAW based schemes


 Dipole corrections
   LMONO  =      F    monopole corrections only (constant potential shift)
   LDIPOL =      T    correct potential (dipole corrections)
   IDIPOL =      3    1-x, 2-y, 3-z, 4-all directions 
   EPSILON=  1.0000000 bulk dielectric constant

   EFIELD =  0.4000000 eV/A    external electric field

 Exchange correlation treatment:
   GGA     =    RP    GGA type
   LEXCH   =     9    internal setting for exchange type
   VOSKOWN=      1    Vosko Wilk Nusair interpolation
   LHFCALC =     F    Hartree Fock is set to
   LHFONE  =     F    Hartree Fock one center treatment
   AEXX    =    0.0000 exact exchange contribution

 Linear response parameters
   LEPSILON=     F    determine dielectric tensor
   LRPA    =     F    only Hartree local field effects (RPA)
   LNABLA  =     F    use nabla operator in PAW spheres
   LVEL    =     F    velocity operator in full k-point grid
   LINTERFAST=   F  fast interpolation
   KINTER  =     0    interpolate to denser k-point grid
   CSHIFT  =0.1000    complex shift for real part using Kramers Kronig
   OMEGAMAX=  -1.0    maximum frequency
   DEG_THRESHOLD= 0.2000000E-02 threshold for treating states as degnerate
   RTIME   =   -0.100 relaxation time in fs
  (WPLASMAI=    0.000 imaginary part of plasma frequency in eV, 0.658/RTIME)
   DFIELD  = 0.0000000 0.0000000 0.0000000 field for delta impulse in time
 
 Orbital magnetization related:
   ORBITALMAG=     F  switch on orbital magnetization
   LCHIMAG   =     F  perturbation theory with respect to B field
   DQ        =  0.001000  dq finite difference perturbation B field
   LLRAUG    =     F  two centre corrections for induced B field



--------------------------------------------------------------------------------------------------------


 Static calculation
 charge density and potential will be updated during run
 non-spin polarized calculation
 RMM-DIIS sequential band-by-band
 perform sub-space diagonalisation
    before iterative eigenvector-optimisation
 modified Broyden-mixing scheme, WC =      100.0
 initial mixing is a Kerker type mixing with AMIX =  0.4000 and BMIX =      1.0000
 Hartree-type preconditioning will be used
 using additional bands           42
 real space projection scheme for non local part
 use partial core corrections
 calculate Harris-corrections to forces 
   (improved forces if not selfconsistent)
 use gradient corrections 
 use of overlap-Matrix (Vanderbilt PP)
 Methfessel and Paxton  Order N= 2 SIGMA  =   0.20


--------------------------------------------------------------------------------------------------------


  energy-cutoff  :      544.00
  volume of cell :     1319.92
      direct lattice vectors                 reciprocal lattice vectors
     7.700375000  0.000000000  0.000000000     0.129863805  0.000000000  0.000000000
     0.000000000  7.700375000  0.000000000     0.000000000  0.129863805  0.000000000
     0.000000000  0.000000000 22.259998000     0.000000000  0.000000000  0.044923634

  length of vectors
     7.700375000  7.700375000 22.259998000     0.129863805  0.129863805  0.044923634


 
 k-points in units of 2pi/SCALE and weight: KPOINTS created by Atomic Simulation Env
   0.01623298  0.01623298  0.00000000       0.125
   0.04869893  0.01623298  0.00000000       0.125
  -0.04869893  0.01623298  0.00000000       0.125
  -0.01623298  0.01623298  0.00000000       0.125
   0.01623298  0.04869893  0.00000000       0.125
   0.04869893  0.04869893  0.00000000       0.125
  -0.04869893  0.04869893  0.00000000       0.125
  -0.01623298  0.04869893  0.00000000       0.125
 
 k-points in reciprocal lattice and weights: KPOINTS created by Atomic Simulation Env
   0.12500000  0.12500000  0.00000000       0.125
   0.37500000  0.12500000  0.00000000       0.125
  -0.37500000  0.12500000  0.00000000       0.125
  -0.12500000  0.12500000  0.00000000       0.125
   0.12500000  0.37500000  0.00000000       0.125
   0.37500000  0.37500000  0.00000000       0.125
  -0.37500000  0.37500000  0.00000000       0.125
  -0.12500000  0.37500000  0.00000000       0.125
 
 position of ions in fractional coordinates (direct lattice) 
   0.16666708  0.16666708  0.00000000
   0.50000110  0.16666708  0.00000000
   0.83333526  0.16666708  0.00000000
   0.16666708  0.50000110  0.00000000
   0.50000110  0.50000110  0.00000000
   0.83333526  0.50000110  0.00000000
   0.16666708  0.83333526  0.00000000
   0.50000110  0.83333526  0.00000000
   0.83333526  0.83333526  0.00000000
   0.00000000  0.00000000  0.08153640
   0.33333416  0.00000000  0.08153640
   0.66666818  0.00000000  0.08153640
   0.00000000  0.33333416  0.08153640
   0.33333416  0.33333416  0.08153640
   0.66666818  0.33333416  0.08153640
   0.00000000  0.66666818  0.08153640
   0.33333416  0.66666818  0.08153640
   0.66666818  0.66666818  0.08153640
   0.16749132  0.16755171  0.16633056
   0.50023135  0.16854569  0.16659426
   0.83382822  0.17046235  0.16772441
   0.16775183  0.49998007  0.16359364
   0.49814808  0.49989721  0.16238928
   0.83170417  0.50060588  0.16558160
   0.16698693  0.83269425  0.16625136
   0.49959450  0.83143159  0.16657733
   0.83341318  0.83126432  0.16761520
   0.00132513  0.00111748  0.24773960
   0.33395555  0.99946665  0.24757473
   0.66657143  0.00089502  0.24789836
   0.00244988  0.33616610  0.24967743
   0.33544626  0.33422567  0.25154063
   0.66548343  0.33587572  0.25168187
   0.00045024  0.66549733  0.24947307
   0.33368154  0.66454491  0.25157729
   0.66443608  0.66598536  0.25129167
 
 position of ions in cartesian coordinates  (Angst):
   1.28339900  1.28339900  0.00000000
   3.85019600  1.28339900  0.00000000
   6.41699400  1.28339900  0.00000000
   1.28339900  3.85019600  0.00000000
   3.85019600  3.85019600  0.00000000
   6.41699400  3.85019600  0.00000000
   1.28339900  6.41699400  0.00000000
   3.85019600  6.41699400  0.00000000
   6.41699400  6.41699400  0.00000000
   0.00000000  0.00000000  1.81500000
   2.56679800  0.00000000  1.81500000
   5.13359500  0.00000000  1.81500000
   0.00000000  2.56679800  1.81500000
   2.56679800  2.56679800  1.81500000
   5.13359500  2.56679800  1.81500000
   0.00000000  5.13359500  1.81500000
   2.56679800  5.13359500  1.81500000
   5.13359500  5.13359500  1.81500000
   1.28974600  1.29021100  3.70251800
   3.85196900  1.29786500  3.70838800
   6.42079000  1.31262400  3.73354500
   1.29175200  3.85003400  3.64159400
   3.83592700  3.84939600  3.61478500
   6.40443400  3.85485300  3.68584600
   1.28586200  6.41205800  3.70075500
   3.84706500  6.40233500  3.70801100
   6.41759400  6.40104700  3.73111400
   0.01020400  0.00860500  5.51468300
   2.57158300  7.69626800  5.51101300
   5.13285000  0.00689200  5.51821700
   0.01886500  2.58860500  5.55781900
   2.58306200  2.57366300  5.59929400
   5.12447200  2.58636900  5.60243800
   0.00346700  5.12457900  5.55327000
   2.56947300  5.11724500  5.60011000
   5.11640700  5.12833700  5.59375200
 


--------------------------------------------------------------------------------------------------------


 k-point  1 :   0.1250 0.1250 0.0000  plane waves:   38041
 k-point  2 :   0.3750 0.1250 0.0000  plane waves:   38040
 k-point  3 :  -0.3750 0.1250 0.0000  plane waves:   38040
 k-point  4 :  -0.1250 0.1250 0.0000  plane waves:   38041
 k-point  5 :   0.1250 0.3750 0.0000  plane waves:   38040
 k-point  6 :   0.3750 0.3750 0.0000  plane waves:   37996
 k-point  7 :  -0.3750 0.3750 0.0000  plane waves:   37996
 k-point  8 :  -0.1250 0.3750 0.0000  plane waves:   38040

 maximum and minimum number of plane-waves per node :     38041    37996

 maximum number of plane-waves:     38041
 maximum index in each direction: 
   IXMAX=   15   IYMAX=   14   IZMAX=   42
   IXMIN=  -15   IYMIN=  -15   IZMIN=  -42


 serial   3D FFT for wavefunctions
 parallel 3D FFT for charge:
    minimum data exchange during FFTs selected (reduces bandwidth)


 total amount of memory used by VASP MPI-rank0   144874. kBytes
=======================================================================

   base      :      30000. kBytes
   nonlr-proj:      14881. kBytes
   fftplans  :       6175. kBytes
   grid      :      18948. kBytes
   one-center:        559. kBytes
   wavefun   :      74311. kBytes
 
     INWAV:  cpu time    0.0000: real time    0.0003
 Broyden mixing: mesh for mixing (old mesh)
   NGX = 29   NGY = 29   NGZ = 85
  (NGX  = 96   NGY  = 96   NGZ  =256)
  gives a total of  71485 points

 initial charge density was supplied:
 charge density of overlapping atoms calculated
 number of electron     396.0000000 magnetization 
 keeping initial charge density in first step


--------------------------------------------------------------------------------------------------------


 Maximum index for non-local projection operator         2371
 Maximum index for augmentation-charges          404 (set IRDMAX)


--------------------------------------------------------------------------------------------------------


 First call to EWALD:  gamma=   0.162
 Maximum number of real-space cells 4x 4x 2
 Maximum number of reciprocal cells 2x 2x 5

    FEWALD:  cpu time    0.0018: real time    0.0018


--------------------------------------- Iteration      1(   1)  ---------------------------------------


    POTLOK:  cpu time    0.0941: real time    0.0978
    SETDIJ:  cpu time    0.0066: real time    0.0066
    EDDIAG:  cpu time    2.6034: real time    2.6266
  RMM-DIIS:  cpu time    4.1707: real time    4.2041
    ORTHCH:  cpu time    0.6508: real time    0.6543
       DOS:  cpu time    0.0017: real time    0.0017
    --------------------------------------------
      LOOP:  cpu time    7.5274: real time    7.5912

 eigenvalue-minimisations  :  1920
 total energy-change (2. order) : 0.3144621E+04  (-0.1584093E+05)
 number of electron     396.0000000 magnetization 
 augmentation part      396.0000000 magnetization 

 DIPCOR: dipole corrections for dipol
 direction  3 min pos   164,
 dipolmoment           0.000000      0.000000      0.000069 electrons x Angstroem
 Tr[quadrupol]     -4128.493775

 energy correction for charged system         0.000000 eV
 dipol+quadrupol energy correction           -0.000000 eV
 added-field ion interaction        -43.773572 eV  (added to PSCEN)


 Free energy of the ion-electron system (eV)
  ---------------------------------------------------
  alpha Z        PSCENC =       674.29902454
  Ewald energy   TEWEN  =    164226.44806453
  -Hartree energ DENC   =   -212025.95640762
  -exchange      EXHF   =         0.00000000
  -V(xc)+E(xc)   XCENC  =      1613.73814842
  PAW double counting   =     44243.50493509   -48017.47383163
  entropy T*S    EENTRO =        -0.02272167
  eigenvalues    EBANDS =      2392.16036118
  atomic energy  EATOM  =     50037.92390023
  Solvation  Ediel_sol  =         0.00000000
  ---------------------------------------------------
  free energy    TOTEN  =      3144.62147307 eV

  energy without entropy =     3144.64419474  energy(sigma->0) =     3144.62715349


--------------------------------------------------------------------------------------------------------




--------------------------------------- Iteration      1(   2)  ---------------------------------------


    EDDIAG:  cpu time    2.6547: real time    2.6743
  RMM-DIIS:  cpu time    4.4377: real time    4.4688
    ORTHCH:  cpu time    0.6383: real time    0.6417
       DOS:  cpu time    0.0011: real time    0.0011
    --------------------------------------------
      LOOP:  cpu time    7.7318: real time    7.7860

 eigenvalue-minimisations  :  1920
 total energy-change (2. order) :-0.2433917E+04  (-0.2747593E+04)
 number of electron     396.0000000 magnetization 
 augmentation part      396.0000000 magnetization 

 DIPCOR: dipole corrections for dipol
 direction  3 min pos   164,
 dipolmoment           0.000000      0.000000      0.000069 electrons x Angstroem
 Tr[quadrupol]     -4128.493775

 energy correction for charged system         0.000000 eV
 dipol+quadrupol energy correction           -0.000000 eV
 added-field ion interaction        -43.773572 eV  (added to PSCEN)


 Free energy of the ion-electron system (eV)
  ---------------------------------------------------
  alpha Z        PSCENC =       674.29902454
  Ewald energy   TEWEN  =    164226.44806453
  -Hartree energ DENC   =   -212025.95640762
  -exchange      EXHF   =         0.00000000
  -V(xc)+E(xc)   XCENC  =      1613.73814842
  PAW double counting   =     44243.50493509   -48017.47383163
  entropy T*S    EENTRO =        -0.00174516
  eigenvalues    EBANDS =       -41.77722753
  atomic energy  EATOM  =     50037.92390023
  Solvation  Ediel_sol  =         0.00000000
  ---------------------------------------------------
  free energy    TOTEN  =       710.70486087 eV

  energy without entropy =      710.70660603  energy(sigma->0) =      710.70529716


--------------------------------------------------------------------------------------------------------




--------------------------------------- Iteration      1(   3)  ---------------------------------------


    EDDIAG:  cpu time    2.6819: real time    2.6989
  RMM-DIIS:  cpu time    4.1988: real time    4.2290
    ORTHCH:  cpu time    0.6292: real time    0.6322
       DOS:  cpu time    0.0011: real time    0.0011
    --------------------------------------------
      LOOP:  cpu time    7.5110: real time    7.5613

 eigenvalue-minimisations  :  1920
 total energy-change (2. order) :-0.5369026E+03  (-0.5472633E+03)
 number of electron     396.0000000 magnetization 
 augmentation part      396.0000000 magnetization 

 DIPCOR: dipole corrections for dipol
 direction  3 min pos   164,
 dipolmoment           0.000000      0.000000      0.000069 electrons x Angstroem
 Tr[quadrupol]     -4128.493775

 energy correction for charged system         0.000000 eV
 dipol+quadrupol energy correction           -0.000000 eV
 added-field ion interaction        -43.773572 eV  (added to PSCEN)


 Free energy of the ion-electron system (eV)
  ---------------------------------------------------
  alpha Z        PSCENC =       674.29902454
  Ewald energy   TEWEN  =    164226.44806453
  -Hartree energ DENC   =   -212025.95640762
  -exchange      EXHF   =         0.00000000
  -V(xc)+E(xc)   XCENC  =      1613.73814842
  PAW double counting   =     44243.50493509   -48017.47383163
  entropy T*S    EENTRO =         0.04509252
  eigenvalues    EBANDS =      -578.72666099
  atomic energy  EATOM  =     50037.92390023
  Solvation  Ediel_sol  =         0.00000000
  ---------------------------------------------------
  free energy    TOTEN  =       173.80226510 eV

  energy without entropy =      173.75717258  energy(sigma->0) =      173.79099197


--------------------------------------------------------------------------------------------------------




--------------------------------------- Iteration      1(   4)  ---------------------------------------


    EDDIAG:  cpu time    2.6005: real time    2.6170
  RMM-DIIS:  cpu time    4.3861: real time    4.4164
    ORTHCH:  cpu time    0.6478: real time    0.6510
       DOS:  cpu time    0.0011: real time    0.0011
    --------------------------------------------
      LOOP:  cpu time    7.6354: real time    7.6855

 eigenvalue-minimisations  :  1920
 total energy-change (2. order) :-0.2144983E+03  (-0.9325650E+02)
 number of electron     396.0000000 magnetization 
 augmentation part      396.0000000 magnetization 

 DIPCOR: dipole corrections for dipol
 direction  3 min pos   164,
 dipolmoment           0.000000      0.000000      0.000069 electrons x Angstroem
 Tr[quadrupol]     -4128.493775

 energy correction for charged system         0.000000 eV
 dipol+quadrupol energy correction           -0.000000 eV
 added-field ion interaction        -43.773572 eV  (added to PSCEN)


 Free energy of the ion-electron system (eV)
  ---------------------------------------------------
  alpha Z        PSCENC =       674.29902454
  Ewald energy   TEWEN  =    164226.44806453
  -Hartree energ DENC   =   -212025.95640762
  -exchange      EXHF   =         0.00000000
  -V(xc)+E(xc)   XCENC  =      1613.73814842
  PAW double counting   =     44243.50493509   -48017.47383163
  entropy T*S    EENTRO =        -0.00085639
  eigenvalues    EBANDS =      -793.17900732
  atomic energy  EATOM  =     50037.92390023
  Solvation  Ediel_sol  =         0.00000000
  ---------------------------------------------------
  free energy    TOTEN  =       -40.69603015 eV

  energy without entropy =      -40.69517375  energy(sigma->0) =      -40.69581605


--------------------------------------------------------------------------------------------------------




--------------------------------------- Iteration      1(   5)  ---------------------------------------


    EDDIAG:  cpu time    2.7459: real time    2.7628
  RMM-DIIS:  cpu time    4.3979: real time    4.4267
    ORTHCH:  cpu time    0.6295: real time    0.6327
       DOS:  cpu time    0.0011: real time    0.0011
    --------------------------------------------
      LOOP:  cpu time    7.7744: real time    7.8232

 eigenvalue-minimisations  :  1920
 total energy-change (2. order) :-0.5425603E+02  (-0.3494934E+02)
 number of electron     396.0000000 magnetization 
 augmentation part      396.0000000 magnetization 

 DIPCOR: dipole corrections for dipol
 direction  3 min pos   164,
 dipolmoment           0.000000      0.000000      0.000069 electrons x Angstroem
 Tr[quadrupol]     -4128.493775

 energy correction for charged system         0.000000 eV
 dipol+quadrupol energy correction           -0.000000 eV
 added-field ion interaction        -43.773572 eV  (added to PSCEN)


 Free energy of the ion-electron system (eV)
  ---------------------------------------------------
  alpha Z        PSCENC =       674.29902454
  Ewald energy   TEWEN  =    164226.44806453
  -Hartree energ DENC   =   -212025.95640762
  -exchange      EXHF   =         0.00000000
  -V(xc)+E(xc)   XCENC  =      1613.73814842
  PAW double counting   =     44243.50493509   -48017.47383163
  entropy T*S    EENTRO =        -0.00147858
  eigenvalues    EBANDS =      -847.43441444
  atomic energy  EATOM  =     50037.92390023
  Solvation  Ediel_sol  =         0.00000000
  ---------------------------------------------------
  free energy    TOTEN  =       -94.95205946 eV

  energy without entropy =      -94.95058088  energy(sigma->0) =      -94.95168982


--------------------------------------------------------------------------------------------------------




--------------------------------------- Iteration      1(   6)  ---------------------------------------


    EDDIAG:  cpu time    2.6741: real time    2.6907
  RMM-DIIS:  cpu time    4.1415: real time    4.1697
    ORTHCH:  cpu time    0.6404: real time    0.6434
       DOS:  cpu time    0.0010: real time    0.0010
    --------------------------------------------
      LOOP:  cpu time    7.4570: real time    7.5048

 eigenvalue-minimisations  :  1920
 total energy-change (2. order) :-0.2280751E+02  (-0.1722358E+02)
 number of electron     396.0000000 magnetization 
 augmentation part      396.0000000 magnetization 

 DIPCOR: dipole corrections for dipol
 direction  3 min pos   164,
 dipolmoment           0.000000      0.000000      0.000069 electrons x Angstroem
 Tr[quadrupol]     -4128.493775

 energy correction for charged system         0.000000 eV
 dipol+quadrupol energy correction           -0.000000 eV
 added-field ion interaction        -43.773572 eV  (added to PSCEN)


 Free energy of the ion-electron system (eV)
  ---------------------------------------------------
  alpha Z        PSCENC =       674.29902454
  Ewald energy   TEWEN  =    164226.44806453
  -Hartree energ DENC   =   -212025.95640762
  -exchange      EXHF   =         0.00000000
  -V(xc)+E(xc)   XCENC  =      1613.73814842
  PAW double counting   =     44243.50493509   -48017.47383163
  entropy T*S    EENTRO =         0.01239531
  eigenvalues    EBANDS =      -870.25579820
  atomic energy  EATOM  =     50037.92390023
  Solvation  Ediel_sol  =         0.00000000
  ---------------------------------------------------
  free energy    TOTEN  =      -117.75956933 eV

  energy without entropy =     -117.77196464  energy(sigma->0) =     -117.76266816


--------------------------------------------------------------------------------------------------------




--------------------------------------- Iteration      1(   7)  ---------------------------------------


    EDDIAG:  cpu time    2.6068: real time    2.6233
  RMM-DIIS:  cpu time    4.4803: real time    4.5098
    ORTHCH:  cpu time    0.6681: real time    0.6713
       DOS:  cpu time    0.0013: real time    0.0013
    --------------------------------------------
      LOOP:  cpu time    7.7564: real time    7.8056

 eigenvalue-minimisations  :  1920
 total energy-change (2. order) :-0.1135154E+02  (-0.9373767E+01)
 number of electron     396.0000000 magnetization 
 augmentation part      396.0000000 magnetization 

 DIPCOR: dipole corrections for dipol
 direction  3 min pos   164,
 dipolmoment           0.000000      0.000000      0.000069 electrons x Angstroem
 Tr[quadrupol]     -4128.493775

 energy correction for charged system         0.000000 eV
 dipol+quadrupol energy correction           -0.000000 eV
 added-field ion interaction        -43.773572 eV  (added to PSCEN)


 Free energy of the ion-electron system (eV)
  ---------------------------------------------------
  alpha Z        PSCENC =       674.29902454
  Ewald energy   TEWEN  =    164226.44806453
  -Hartree energ DENC   =   -212025.95640762
  -exchange      EXHF   =         0.00000000
  -V(xc)+E(xc)   XCENC  =      1613.73814842
  PAW double counting   =     44243.50493509   -48017.47383163
  entropy T*S    EENTRO =         0.06890122
  eigenvalues    EBANDS =      -881.66384639
  atomic energy  EATOM  =     50037.92390023
  Solvation  Ediel_sol  =         0.00000000
  ---------------------------------------------------
  free energy    TOTEN  =      -129.11111161 eV

  energy without entropy =     -129.18001283  energy(sigma->0) =     -129.12833691


--------------------------------------------------------------------------------------------------------




--------------------------------------- Iteration      1(   8)  ---------------------------------------


    EDDIAG:  cpu time    2.8158: real time    2.8342
  RMM-DIIS:  cpu time    4.9814: real time    5.0136
    ORTHCH:  cpu time    0.6680: real time    0.6713
       DOS:  cpu time    0.0012: real time    0.0012
    --------------------------------------------
      LOOP:  cpu time    8.4665: real time    8.5203

 eigenvalue-minimisations  :  1920
 total energy-change (2. order) :-0.5856577E+01  (-0.5002573E+01)
 number of electron     396.0000000 magnetization 
 augmentation part      396.0000000 magnetization 

 DIPCOR: dipole corrections for dipol
 direction  3 min pos   164,
 dipolmoment           0.000000      0.000000      0.000069 electrons x Angstroem
 Tr[quadrupol]     -4128.493775

 energy correction for charged system         0.000000 eV
 dipol+quadrupol energy correction           -0.000000 eV
 added-field ion interaction        -43.773572 eV  (added to PSCEN)


 Free energy of the ion-electron system (eV)
  ---------------------------------------------------
  alpha Z        PSCENC =       674.29902454
  Ewald energy   TEWEN  =    164226.44806453
  -Hartree energ DENC   =   -212025.95640762
  -exchange      EXHF   =         0.00000000
  -V(xc)+E(xc)   XCENC  =      1613.73814842
  PAW double counting   =     44243.50493509   -48017.47383163
  entropy T*S    EENTRO =         0.07907569
  eigenvalues    EBANDS =      -887.53059771
  atomic energy  EATOM  =     50037.92390023
  Solvation  Ediel_sol  =         0.00000000
  ---------------------------------------------------
  free energy    TOTEN  =      -134.96768845 eV

  energy without entropy =     -135.04676414  energy(sigma->0) =     -134.98745737


--------------------------------------------------------------------------------------------------------




--------------------------------------- Iteration      1(   9)  ---------------------------------------


    EDDIAG:  cpu time    2.9056: real time    2.9230
  RMM-DIIS:  cpu time   14.2019: real time   14.2943
    ORTHCH:  cpu time    0.6661: real time    0.6697
       DOS:  cpu time    0.0011: real time    0.0011
    --------------------------------------------
      LOOP:  cpu time   17.7747: real time   17.8881

 eigenvalue-minimisations  :  5686
 total energy-change (2. order) :-0.5698769E+01  (-0.5415141E+01)
 number of electron     396.0000000 magnetization 
 augmentation part      396.0000000 magnetization 

 DIPCOR: dipole corrections for dipol
 direction  3 min pos   164,
 dipolmoment           0.000000      0.000000      0.000069 electrons x Angstroem
 Tr[quadrupol]     -4128.493775

 energy correction for charged system         0.000000 eV
 dipol+quadrupol energy correction           -0.000000 eV
 added-field ion interaction        -43.773572 eV  (added to PSCEN)


 Free energy of the ion-electron system (eV)
  ---------------------------------------------------
  alpha Z        PSCENC =       674.29902454
  Ewald energy   TEWEN  =    164226.44806453
  -Hartree energ DENC   =   -212025.95640762
  -exchange      EXHF   =         0.00000000
  -V(xc)+E(xc)   XCENC  =      1613.73814842
  PAW double counting   =     44243.50493509   -48017.47383163
  entropy T*S    EENTRO =         0.08429442
  eigenvalues    EBANDS =      -893.23458534
  atomic energy  EATOM  =     50037.92390023
  Solvation  Ediel_sol  =         0.00000000
  ---------------------------------------------------
  free energy    TOTEN  =      -140.66645736 eV

  energy without entropy =     -140.75075178  energy(sigma->0) =     -140.68753096


--------------------------------------------------------------------------------------------------------




--------------------------------------- Iteration      1(  10)  ---------------------------------------


    EDDIAG:  cpu time    2.8880: real time    2.9065
  RMM-DIIS:  cpu time    9.4095: real time    9.4720
    ORTHCH:  cpu time    0.6287: real time    0.6316
       DOS:  cpu time    0.0011: real time    0.0011
    --------------------------------------------
      LOOP:  cpu time   12.9273: real time   13.0112

 eigenvalue-minimisations  :  4372
 total energy-change (2. order) :-0.8713450E-01  (-0.1972987E+00)
 number of electron     396.0000000 magnetization 
 augmentation part      396.0000000 magnetization 

 DIPCOR: dipole corrections for dipol
 direction  3 min pos   164,
 dipolmoment           0.000000      0.000000      0.000069 electrons x Angstroem
 Tr[quadrupol]     -4128.493775

 energy correction for charged system         0.000000 eV
 dipol+quadrupol energy correction           -0.000000 eV
 added-field ion interaction        -43.773572 eV  (added to PSCEN)


 Free energy of the ion-electron system (eV)
  ---------------------------------------------------
  alpha Z        PSCENC =       674.29902454
  Ewald energy   TEWEN  =    164226.44806453
  -Hartree energ DENC   =   -212025.95640762
  -exchange      EXHF   =         0.00000000
  -V(xc)+E(xc)   XCENC  =      1613.73814842
  PAW double counting   =     44243.50493509   -48017.47383163
  entropy T*S    EENTRO =         0.08100665
  eigenvalues    EBANDS =      -893.31843207
  atomic energy  EATOM  =     50037.92390023
  Solvation  Ediel_sol  =         0.00000000
  ---------------------------------------------------
  free energy    TOTEN  =      -140.75359186 eV

  energy without entropy =     -140.83459851  energy(sigma->0) =     -140.77384352


--------------------------------------------------------------------------------------------------------




--------------------------------------- Iteration      1(  11)  ---------------------------------------


    EDDIAG:  cpu time    2.6670: real time    2.6834
  RMM-DIIS:  cpu time   11.6268: real time   11.7065
    ORTHCH:  cpu time    0.6333: real time    0.6366
       DOS:  cpu time    0.0011: real time    0.0011
    --------------------------------------------
      LOOP:  cpu time   14.9282: real time   15.0276

 eigenvalue-minimisations  :  5729
 total energy-change (2. order) :-0.5563342E-01  (-0.4717259E-01)
 number of electron     396.0000000 magnetization 
 augmentation part      396.0000000 magnetization 

 DIPCOR: dipole corrections for dipol
 direction  3 min pos   164,
 dipolmoment           0.000000      0.000000      0.000069 electrons x Angstroem
 Tr[quadrupol]     -4128.493775

 energy correction for charged system         0.000000 eV
 dipol+quadrupol energy correction           -0.000000 eV
 added-field ion interaction        -43.773572 eV  (added to PSCEN)


 Free energy of the ion-electron system (eV)
  ---------------------------------------------------
  alpha Z        PSCENC =       674.29902454
  Ewald energy   TEWEN  =    164226.44806453
  -Hartree energ DENC   =   -212025.95640762
  -exchange      EXHF   =         0.00000000
  -V(xc)+E(xc)   XCENC  =      1613.73814842
  PAW double counting   =     44243.50493509   -48017.47383163
  entropy T*S    EENTRO =         0.08051662
  eigenvalues    EBANDS =      -893.37357546
  atomic energy  EATOM  =     50037.92390023
  Solvation  Ediel_sol  =         0.00000000
  ---------------------------------------------------
  free energy    TOTEN  =      -140.80922528 eV

  energy without entropy =     -140.88974190  energy(sigma->0) =     -140.82935443


--------------------------------------------------------------------------------------------------------




--------------------------------------- Iteration      1(  12)  ---------------------------------------


    EDDIAG:  cpu time    2.6479: real time    2.6652
  RMM-DIIS:  cpu time    9.3498: real time    9.4142
    ORTHCH:  cpu time    0.6313: real time    0.6345
       DOS:  cpu time    0.0011: real time    0.0011
    CHARGE:  cpu time    0.7331: real time    0.7379
    MIXING:  cpu time    0.0046: real time    0.0047
    --------------------------------------------
      LOOP:  cpu time   13.3678: real time   13.4576

 eigenvalue-minimisations  :  4350
 total energy-change (2. order) :-0.6512909E-03  (-0.6490547E-03)
 number of electron     395.9998228 magnetization 
 augmentation part      235.1541391 magnetization 

 DIPCOR: dipole corrections for dipol
 direction  3 min pos   164,
 dipolmoment           0.000000      0.000000      0.000069 electrons x Angstroem
 Tr[quadrupol]     -4128.493775

 energy correction for charged system         0.000000 eV
 dipol+quadrupol energy correction           -0.000000 eV
 added-field ion interaction        -43.773572 eV  (added to PSCEN)


 Broyden mixing:
  rms(total) = 0.46538E+01    rms(broyden)= 0.46537E+01
  rms(prec ) = 0.54787E+01
  weight for this iteration     100.00

 Free energy of the ion-electron system (eV)
  ---------------------------------------------------
  alpha Z        PSCENC =       674.29902454
  Ewald energy   TEWEN  =    164226.44806453
  -Hartree energ DENC   =   -212025.95640762
  -exchange      EXHF   =         0.00000000
  -V(xc)+E(xc)   XCENC  =      1613.73814842
  PAW double counting   =     44243.50493509   -48017.47383163
  entropy T*S    EENTRO =         0.08053021
  eigenvalues    EBANDS =      -893.37424034
  atomic energy  EATOM  =     50037.92390023
  Solvation  Ediel_sol  =         0.00000000
  ---------------------------------------------------
  free energy    TOTEN  =      -140.80987657 eV

  energy without entropy =     -140.89040678  energy(sigma->0) =     -140.83000912


--------------------------------------------------------------------------------------------------------




--------------------------------------- Iteration      1(  13)  ---------------------------------------


    POTLOK:  cpu time    0.0873: real time    0.0887
    SETDIJ:  cpu time    0.0057: real time    0.0057
    EDDIAG:  cpu time    2.6458: real time    2.6612
  RMM-DIIS:  cpu time   11.4922: real time   11.5699
    ORTHCH:  cpu time    0.6337: real time    0.6371
       DOS:  cpu time    0.0011: real time    0.0011
    CHARGE:  cpu time    0.6922: real time    0.6966
    MIXING:  cpu time    0.0034: real time    0.0036
    --------------------------------------------
      LOOP:  cpu time   15.5614: real time   15.6639

 eigenvalue-minimisations  :  5198
 total energy-change (2. order) :-0.1877588E+03  (-0.8981424E+02)
 number of electron     395.9997872 magnetization 
 augmentation part      244.6334012 magnetization 

 DIPCOR: dipole corrections for dipol
 direction  3 min pos   162,
 dipolmoment           0.000000      0.000000      5.681986 electrons x Angstroem
 Tr[quadrupol]     -4129.801696

 energy correction for charged system         0.000000 eV
 dipol+quadrupol energy correction           -2.212809 eV
 added-field ion interaction         15.374662 eV  (added to PSCEN)


 Broyden mixing:
  rms(total) = 0.90356E+01    rms(broyden)= 0.90349E+01
  rms(prec ) = 0.12772E+02
  weight for this iteration     100.00

 eigenvalues of (default mixing * dielectric matrix)
  average eigenvalue GAMMA=   0.2549
  0.2549

 Free energy of the ion-electron system (eV)
  ---------------------------------------------------
  alpha Z        PSCENC =       731.23444887
  Ewald energy   TEWEN  =    164226.44806453
  -Hartree energ DENC   =   -211050.72289190
  -exchange      EXHF   =         0.00000000
  -V(xc)+E(xc)   XCENC  =      1567.30090099
  PAW double counting   =     44338.21280208   -47924.29097641
  entropy T*S    EENTRO =        -0.07459000
  eigenvalues    EBANDS =     -2254.60029955
  atomic energy  EATOM  =     50037.92390023
  Solvation  Ediel_sol  =         0.00000000
  ---------------------------------------------------
  free energy    TOTEN  =      -328.56864117 eV

  energy without entropy =     -328.49405117  energy(sigma->0) =     -328.54999367


--------------------------------------------------------------------------------------------------------




--------------------------------------- Iteration      1(  14)  ---------------------------------------


    POTLOK:  cpu time    0.0746: real time    0.0759
    SETDIJ:  cpu time    0.0061: real time    0.0061
    EDDIAG:  cpu time    2.6092: real time    2.6235
  RMM-DIIS:  cpu time    8.1579: real time    8.2148
    ORTHCH:  cpu time    0.6432: real time    0.6465
       DOS:  cpu time    0.0011: real time    0.0011
    CHARGE:  cpu time    0.6880: real time    0.6927
    MIXING:  cpu time    0.0033: real time    0.0033
    --------------------------------------------
      LOOP:  cpu time   12.1834: real time   12.2639

 eigenvalue-minimisations  :  4009
 total energy-change (2. order) : 0.1832507E+03  (-0.1992510E+02)
 number of electron     395.9997915 magnetization 
 augmentation part      263.6062626 magnetization 

 DIPCOR: dipole corrections for dipol
 direction  3 min pos   158,
 dipolmoment           0.000000      0.000000      1.178355 electrons x Angstroem
 Tr[quadrupol]     -4130.108284

 energy correction for charged system         0.000000 eV
 dipol+quadrupol energy correction           -0.095169 eV
 added-field ion interaction         23.169155 eV  (added to PSCEN)


 Broyden mixing:
  rms(total) = 0.35937E+01    rms(broyden)= 0.35928E+01
  rms(prec ) = 0.38767E+01
  weight for this iteration     100.00

 eigenvalues of (default mixing * dielectric matrix)
  average eigenvalue GAMMA=   0.3846
  0.5531  0.2160

 Free energy of the ion-electron system (eV)
  ---------------------------------------------------
  alpha Z        PSCENC =       741.14658249
  Ewald energy   TEWEN  =    164226.44806453
  -Hartree energ DENC   =   -211054.32396275
  -exchange      EXHF   =         0.00000000
  -V(xc)+E(xc)   XCENC  =      1563.94710821
  PAW double counting   =     44337.85918169   -47950.84089313
  entropy T*S    EENTRO =         0.03741540
  eigenvalues    EBANDS =     -2047.51531569
  atomic energy  EATOM  =     50037.92390023
  Solvation  Ediel_sol  =         0.00000000
  ---------------------------------------------------
  free energy    TOTEN  =      -145.31791902 eV

  energy without entropy =     -145.35533441  energy(sigma->0) =     -145.32727287


--------------------------------------------------------------------------------------------------------




--------------------------------------- Iteration      1(  15)  ---------------------------------------


    POTLOK:  cpu time    0.0746: real time    0.0760
    SETDIJ:  cpu time    0.0058: real time    0.0058
    EDDIAG:  cpu time    2.5885: real time    2.6039
  RMM-DIIS:  cpu time    8.6727: real time    8.7323
    ORTHCH:  cpu time    0.6299: real time    0.6331
       DOS:  cpu time    0.0011: real time    0.0011
    CHARGE:  cpu time    0.6569: real time    0.6616
    MIXING:  cpu time    0.0037: real time    0.0037
    --------------------------------------------
      LOOP:  cpu time   12.6333: real time   12.7175

 eigenvalue-minimisations  :  4061
 total energy-change (2. order) : 0.3380817E+02  (-0.8856148E+01)
 number of electron     395.9997973 magnetization 
 augmentation part      258.3829156 magnetization 

 DIPCOR: dipole corrections for dipol
 direction  3 min pos   155,
 dipolmoment           0.000000      0.000000      0.827424 electrons x Angstroem
 Tr[quadrupol]     -4128.925212

 energy correction for charged system         0.000000 eV
 dipol+quadrupol energy correction           -0.046924 eV
 added-field ion interaction         57.446020 eV  (added to PSCEN)


 Broyden mixing:
  rms(total) = 0.11829E+01    rms(broyden)= 0.11828E+01
  rms(prec ) = 0.13059E+01
  weight for this iteration     100.00

 eigenvalues of (default mixing * dielectric matrix)
  average eigenvalue GAMMA=   0.4749
  0.5956  0.5956  0.2335

 Free energy of the ion-electron system (eV)
  ---------------------------------------------------
  alpha Z        PSCENC =       775.47169181
  Ewald energy   TEWEN  =    164226.44806453
  -Hartree energ DENC   =   -211280.53178695
  -exchange      EXHF   =         0.00000000
  -V(xc)+E(xc)   XCENC  =      1576.52611292
  PAW double counting   =     44936.38310344   -48675.57785623
  entropy T*S    EENTRO =         0.03488962
  eigenvalues    EBANDS =     -1708.18787193
  atomic energy  EATOM  =     50037.92390023
  Solvation  Ediel_sol  =         0.00000000
  ---------------------------------------------------
  free energy    TOTEN  =      -111.50975257 eV

  energy without entropy =     -111.54464219  energy(sigma->0) =     -111.51847498


--------------------------------------------------------------------------------------------------------




--------------------------------------- Iteration      1(  16)  ---------------------------------------


    POTLOK:  cpu time    0.0747: real time    0.0768
    SETDIJ:  cpu time    0.0055: real time    0.0055
    EDDIAG:  cpu time    2.6639: real time    2.6797
  RMM-DIIS:  cpu time    8.7991: real time    8.8600
    ORTHCH:  cpu time    0.6473: real time    0.6503
       DOS:  cpu time    0.0011: real time    0.0011
    CHARGE:  cpu time    0.6200: real time    0.6242
    MIXING:  cpu time    0.0044: real time    0.0044
    --------------------------------------------
      LOOP:  cpu time   12.8160: real time   12.9020

 eigenvalue-minimisations  :  4103
 total energy-change (2. order) : 0.2245317E+01  (-0.1182059E+01)
 number of electron     395.9997988 magnetization 
 augmentation part      254.9005332 magnetization 

 DIPCOR: dipole corrections for dipol
 direction  3 min pos   152,
 dipolmoment           0.000000      0.000000      1.200887 electrons x Angstroem
 Tr[quadrupol]     -4129.114173

 energy correction for charged system         0.000000 eV
 dipol+quadrupol energy correction           -0.098843 eV
 added-field ion interaction         71.495559 eV  (added to PSCEN)


 Broyden mixing:
  rms(total) = 0.72075E+00    rms(broyden)= 0.72073E+00
  rms(prec ) = 0.80604E+00
  weight for this iteration     100.00

 eigenvalues of (default mixing * dielectric matrix)
  average eigenvalue GAMMA=   0.5591
  0.8022  0.8022  0.2346  0.3972

 Free energy of the ion-electron system (eV)
  ---------------------------------------------------
  alpha Z        PSCENC =       789.46931160
  Ewald energy   TEWEN  =    164226.44806453
  -Hartree energ DENC   =   -211426.85341373
  -exchange      EXHF   =         0.00000000
  -V(xc)+E(xc)   XCENC  =      1581.14595245
  PAW double counting   =     45349.46000418   -49140.04193454
  entropy T*S    EENTRO =         0.04211394
  eigenvalues    EBANDS =     -1526.85843396
  atomic energy  EATOM  =     50037.92390023
  Solvation  Ediel_sol  =         0.00000000
  ---------------------------------------------------
  free energy    TOTEN  =      -109.26443530 eV

  energy without entropy =     -109.30654924  energy(sigma->0) =     -109.27496378


--------------------------------------------------------------------------------------------------------




--------------------------------------- Iteration      1(  17)  ---------------------------------------


    POTLOK:  cpu time    0.0773: real time    0.0783
    SETDIJ:  cpu time    0.0056: real time    0.0057
    EDDIAG:  cpu time    2.6329: real time    2.6478
  RMM-DIIS:  cpu time    8.3199: real time    8.3772
    ORTHCH:  cpu time    0.6242: real time    0.6274
       DOS:  cpu time    0.0011: real time    0.0011
    CHARGE:  cpu time    0.6542: real time    0.6585
    MIXING:  cpu time    0.0044: real time    0.0044
    --------------------------------------------
      LOOP:  cpu time   12.3196: real time   12.4003

 eigenvalue-minimisations  :  4132
 total energy-change (2. order) : 0.9805504E+00  (-0.6033561E+00)
 number of electron     395.9998006 magnetization 
 augmentation part      253.2883454 magnetization 

 DIPCOR: dipole corrections for dipol
 direction  3 min pos   151,
 dipolmoment           0.000000      0.000000      1.116635 electrons x Angstroem
 Tr[quadrupol]     -4129.639109

 energy correction for charged system         0.000000 eV
 dipol+quadrupol energy correction           -0.085461 eV
 added-field ion interaction         83.506330 eV  (added to PSCEN)


 Broyden mixing:
  rms(total) = 0.17705E+00    rms(broyden)= 0.17699E+00
  rms(prec ) = 0.20122E+00
  weight for this iteration     100.00

 eigenvalues of (default mixing * dielectric matrix)
  average eigenvalue GAMMA=   0.7138
  1.5652  0.6998  0.6998  0.2354  0.3688

 Free energy of the ion-electron system (eV)
  ---------------------------------------------------
  alpha Z        PSCENC =       801.49346590
  Ewald energy   TEWEN  =    164226.44806453
  -Hartree energ DENC   =   -211496.50553194
  -exchange      EXHF   =         0.00000000
  -V(xc)+E(xc)   XCENC  =      1583.12850579
  PAW double counting   =     45766.10779747   -49588.41770710
  entropy T*S    EENTRO =         0.01983833
  eigenvalues    EBANDS =     -1438.48221813
  atomic energy  EATOM  =     50037.92390023
  Solvation  Ediel_sol  =         0.00000000
  ---------------------------------------------------
  free energy    TOTEN  =      -108.28388493 eV

  energy without entropy =     -108.30372325  energy(sigma->0) =     -108.28884451


--------------------------------------------------------------------------------------------------------




--------------------------------------- Iteration      1(  18)  ---------------------------------------


    POTLOK:  cpu time    0.0755: real time    0.0771
    SETDIJ:  cpu time    0.0057: real time    0.0057
    EDDIAG:  cpu time    2.5885: real time    2.6040
  RMM-DIIS:  cpu time   10.7823: real time   10.8547
    ORTHCH:  cpu time    0.6306: real time    0.6338
       DOS:  cpu time    0.0011: real time    0.0011
    CHARGE:  cpu time    0.6548: real time    0.6595
    MIXING:  cpu time    0.0042: real time    0.0043
    --------------------------------------------
      LOOP:  cpu time   14.7426: real time   14.8401

 eigenvalue-minimisations  :  4758
 total energy-change (2. order) :-0.2502211E-01  (-0.1146843E+00)
 number of electron     395.9998007 magnetization 
 augmentation part      253.0754278 magnetization 

 DIPCOR: dipole corrections for dipol
 direction  3 min pos   149,
 dipolmoment           0.000000      0.000000      1.120607 electrons x Angstroem
 Tr[quadrupol]     -4130.112644

 energy correction for charged system         0.000000 eV
 dipol+quadrupol energy correction           -0.086070 eV
 added-field ion interaction        100.288935 eV  (added to PSCEN)


 Broyden mixing:
  rms(total) = 0.21442E+00    rms(broyden)= 0.21442E+00
  rms(prec ) = 0.24258E+00
  weight for this iteration     100.00

 eigenvalues of (default mixing * dielectric matrix)
  average eigenvalue GAMMA=   0.8031
  2.1809  0.7989  0.7989  0.2351  0.3919  0.4132

 Free energy of the ion-electron system (eV)
  ---------------------------------------------------
  alpha Z        PSCENC =       818.27546166
  Ewald energy   TEWEN  =    164226.44806453
  -Hartree energ DENC   =   -211520.73914264
  -exchange      EXHF   =         0.00000000
  -V(xc)+E(xc)   XCENC  =      1582.50706746
  PAW double counting   =     46129.88395672   -49966.70121911
  entropy T*S    EENTRO =         0.00823341
  eigenvalues    EBANDS =     -1415.91522929
  atomic energy  EATOM  =     50037.92390023
  Solvation  Ediel_sol  =         0.00000000
  ---------------------------------------------------
  free energy    TOTEN  =      -108.30890703 eV

  energy without entropy =     -108.31714045  energy(sigma->0) =     -108.31096539


--------------------------------------------------------------------------------------------------------




--------------------------------------- Iteration      1(  19)  ---------------------------------------


    POTLOK:  cpu time    0.0731: real time    0.0755
    SETDIJ:  cpu time    0.0059: real time    0.0059
    EDDIAG:  cpu time    2.6101: real time    2.6252
  RMM-DIIS:  cpu time    8.6778: real time    8.7362
    ORTHCH:  cpu time    0.6664: real time    0.6696
       DOS:  cpu time    0.0010: real time    0.0010
    CHARGE:  cpu time    0.6899: real time    0.6946
    MIXING:  cpu time    0.0041: real time    0.0041
    --------------------------------------------
      LOOP:  cpu time   12.7283: real time   12.8123

 eigenvalue-minimisations  :  4152
 total energy-change (2. order) : 0.1041631E+00  (-0.3608634E-01)
 number of electron     395.9998001 magnetization 
 augmentation part      253.6583991 magnetization 

 DIPCOR: dipole corrections for dipol
 direction  3 min pos   148,
 dipolmoment           0.000000      0.000000      1.168407 electrons x Angstroem
 Tr[quadrupol]     -4130.606921

 energy correction for charged system         0.000000 eV
 dipol+quadrupol energy correction           -0.093569 eV
 added-field ion interaction        105.879174 eV  (added to PSCEN)


 Broyden mixing:
  rms(total) = 0.65411E-01    rms(broyden)= 0.65403E-01
  rms(prec ) = 0.77977E-01
  weight for this iteration     100.00

 eigenvalues of (default mixing * dielectric matrix)
  average eigenvalue GAMMA=   0.9020
  2.3115  1.2194  0.8691  0.8691  0.2351  0.3840  0.4259

 Free energy of the ion-electron system (eV)
  ---------------------------------------------------
  alpha Z        PSCENC =       823.85820093
  Ewald energy   TEWEN  =    164226.44806453
  -Hartree energ DENC   =   -211525.50529574
  -exchange      EXHF   =         0.00000000
  -V(xc)+E(xc)   XCENC  =      1581.20787359
  PAW double counting   =     46325.96809830   -50165.73001064
  entropy T*S    EENTRO =         0.00382188
  eigenvalues    EBANDS =     -1412.37939698
  atomic energy  EATOM  =     50037.92390023
  Solvation  Ediel_sol  =         0.00000000
  ---------------------------------------------------
  free energy    TOTEN  =      -108.20474390 eV

  energy without entropy =     -108.20856578  energy(sigma->0) =     -108.20569937


--------------------------------------------------------------------------------------------------------




--------------------------------------- Iteration      1(  20)  ---------------------------------------


    POTLOK:  cpu time    0.0797: real time    0.0808
    SETDIJ:  cpu time    0.0058: real time    0.0058
    EDDIAG:  cpu time    2.7643: real time    2.7812
  RMM-DIIS:  cpu time    9.8685: real time    9.9315
    ORTHCH:  cpu time    0.7126: real time    0.7164
       DOS:  cpu time    0.0011: real time    0.0011
    CHARGE:  cpu time    0.9206: real time    0.9269
    MIXING:  cpu time    0.0054: real time    0.0054
    --------------------------------------------
      LOOP:  cpu time   14.3579: real time   14.4492

 eigenvalue-minimisations  :  4170
 total energy-change (2. order) : 0.8591688E-02  (-0.9060505E-02)
 number of electron     395.9998003 magnetization 
 augmentation part      253.4442667 magnetization 

 DIPCOR: dipole corrections for dipol
 direction  3 min pos   148,
 dipolmoment           0.000000      0.000000      1.189842 electrons x Angstroem
 Tr[quadrupol]     -4131.020238

 energy correction for charged system         0.000000 eV
 dipol+quadrupol energy correction           -0.097034 eV
 added-field ion interaction        104.581763 eV  (added to PSCEN)


 Broyden mixing:
  rms(total) = 0.77960E-01    rms(broyden)= 0.77958E-01
  rms(prec ) = 0.87228E-01
  weight for this iteration     100.00

 eigenvalues of (default mixing * dielectric matrix)
  average eigenvalue GAMMA=   0.8928
  2.2670  1.7870  0.8102  0.8102  0.2351  0.3751  0.4291  0.4291

 Free energy of the ion-electron system (eV)
  ---------------------------------------------------
  alpha Z        PSCENC =       822.55732592
  Ewald energy   TEWEN  =    164226.44806453
  -Hartree energ DENC   =   -211552.58810522
  -exchange      EXHF   =         0.00000000
  -V(xc)+E(xc)   XCENC  =      1581.51794950
  PAW double counting   =     46412.45242736   -50256.51728709
  entropy T*S    EENTRO =        -0.00010234
  eigenvalues    EBANDS =     -1379.99032509
  atomic energy  EATOM  =     50037.92390023
  Solvation  Ediel_sol  =         0.00000000
  ---------------------------------------------------
  free energy    TOTEN  =      -108.19615221 eV

  energy without entropy =     -108.19604987  energy(sigma->0) =     -108.19612662


--------------------------------------------------------------------------------------------------------




--------------------------------------- Iteration      1(  21)  ---------------------------------------


    POTLOK:  cpu time    0.0965: real time    0.0974
    SETDIJ:  cpu time    0.0057: real time    0.0057
    EDDIAG:  cpu time    3.1497: real time    3.1711
  RMM-DIIS:  cpu time   11.3367: real time   11.4113
    ORTHCH:  cpu time    0.7258: real time    0.7300
       DOS:  cpu time    0.0011: real time    0.0011
    CHARGE:  cpu time    0.8506: real time    0.8561
    MIXING:  cpu time    0.0045: real time    0.0045
    --------------------------------------------
      LOOP:  cpu time   16.1706: real time   16.2773

 eigenvalue-minimisations  :  4141
 total energy-change (2. order) : 0.1471811E-01  (-0.3640349E-02)
 number of electron     395.9998001 magnetization 
 augmentation part      253.6030541 magnetization 

 DIPCOR: dipole corrections for dipol
 direction  3 min pos   148,
 dipolmoment           0.000000      0.000000      1.187665 electrons x Angstroem
 Tr[quadrupol]     -4131.233148

 energy correction for charged system         0.000000 eV
 dipol+quadrupol energy correction           -0.096679 eV
 added-field ion interaction        104.713539 eV  (added to PSCEN)


 Broyden mixing:
  rms(total) = 0.12866E-01    rms(broyden)= 0.12862E-01
  rms(prec ) = 0.21933E-01
  weight for this iteration     100.00

 eigenvalues of (default mixing * dielectric matrix)
  average eigenvalue GAMMA=   0.9422
  2.3821  2.1779  0.8097  0.8097  0.7951  0.2351  0.3796  0.4452  0.4452

 Free energy of the ion-electron system (eV)
  ---------------------------------------------------
  alpha Z        PSCENC =       822.68945614
  Ewald energy   TEWEN  =    164226.44806453
  -Hartree energ DENC   =   -211557.71262314
  -exchange      EXHF   =         0.00000000
  -V(xc)+E(xc)   XCENC  =      1581.32000705
  PAW double counting   =     46413.70912519   -50256.04458530
  entropy T*S    EENTRO =        -0.00082575
  eigenvalues    EBANDS =     -1376.51395305
  atomic energy  EATOM  =     50037.92390023
  Solvation  Ediel_sol  =         0.00000000
  ---------------------------------------------------
  free energy    TOTEN  =      -108.18143410 eV

  energy without entropy =     -108.18060835  energy(sigma->0) =     -108.18122766


--------------------------------------------------------------------------------------------------------




--------------------------------------- Iteration      1(  22)  ---------------------------------------


    POTLOK:  cpu time    0.0985: real time    0.0996
    SETDIJ:  cpu time    0.0066: real time    0.0066
    EDDIAG:  cpu time    3.1345: real time    3.1560
  RMM-DIIS:  cpu time   11.3150: real time   11.3898
    ORTHCH:  cpu time    0.7114: real time    0.7154
       DOS:  cpu time    0.0012: real time    0.0012
    CHARGE:  cpu time    0.9315: real time    0.9379
    MIXING:  cpu time    0.0065: real time    0.0066
    --------------------------------------------
      LOOP:  cpu time   16.2054: real time   16.3135

 eigenvalue-minimisations  :  4252
 total energy-change (2. order) : 0.5804558E-02  (-0.5507295E-03)
 number of electron     395.9998001 magnetization 
 augmentation part      253.6237921 magnetization 

 DIPCOR: dipole corrections for dipol
 direction  3 min pos   148,
 dipolmoment           0.000000      0.000000      1.171800 electrons x Angstroem
 Tr[quadrupol]     -4131.526863

 energy correction for charged system         0.000000 eV
 dipol+quadrupol energy correction           -0.094113 eV
 added-field ion interaction        105.673759 eV  (added to PSCEN)


 Broyden mixing:
  rms(total) = 0.10353E-01    rms(broyden)= 0.10353E-01
  rms(prec ) = 0.16561E-01
  weight for this iteration     100.00

 eigenvalues of (default mixing * dielectric matrix)
  average eigenvalue GAMMA=   0.9846
  2.3779  2.3779  1.0688  0.9083  0.8192  0.8192  0.2351  0.3810  0.4291  0.4291

 Free energy of the ion-electron system (eV)
  ---------------------------------------------------
  alpha Z        PSCENC =       823.65224252
  Ewald energy   TEWEN  =    164226.44806453
  -Hartree energ DENC   =   -211570.59389062
  -exchange      EXHF   =         0.00000000
  -V(xc)+E(xc)   XCENC  =      1581.34075147
  PAW double counting   =     46426.79362001   -50268.74242143
  entropy T*S    EENTRO =        -0.00309259
  eigenvalues    EBANDS =     -1364.99480366
  atomic energy  EATOM  =     50037.92390023
  Solvation  Ediel_sol  =         0.00000000
  ---------------------------------------------------
  free energy    TOTEN  =      -108.17562954 eV

  energy without entropy =     -108.17253695  energy(sigma->0) =     -108.17485639


--------------------------------------------------------------------------------------------------------




--------------------------------------- Iteration      1(  23)  ---------------------------------------


    POTLOK:  cpu time    0.0930: real time    0.0938
    SETDIJ:  cpu time    0.0055: real time    0.0055
    EDDIAG:  cpu time    3.0274: real time    3.0491
  RMM-DIIS:  cpu time   10.9206: real time   10.9926
    ORTHCH:  cpu time    0.7271: real time    0.7315
       DOS:  cpu time    0.0010: real time    0.0011
    CHARGE:  cpu time    0.8156: real time    0.8211
    MIXING:  cpu time    0.0057: real time    0.0058
    --------------------------------------------
      LOOP:  cpu time   15.5956: real time   15.7003

 eigenvalue-minimisations  :  4101
 total energy-change (2. order) : 0.2719907E-02  (-0.1296699E-03)
 number of electron     395.9998001 magnetization 
 augmentation part      253.6220095 magnetization 

 DIPCOR: dipole corrections for dipol
 direction  3 min pos   149,
 dipolmoment           0.000000      0.000000      1.163541 electrons x Angstroem
 Tr[quadrupol]     -4131.873725

 energy correction for charged system         0.000000 eV
 dipol+quadrupol energy correction           -0.092791 eV
 added-field ion interaction         97.892982 eV  (added to PSCEN)


 Broyden mixing:
  rms(total) = 0.96483E-02    rms(broyden)= 0.96482E-02
  rms(prec ) = 0.13565E-01
  weight for this iteration     100.00

 eigenvalues of (default mixing * dielectric matrix)
  average eigenvalue GAMMA=   1.0797
  2.7835  2.7835  1.5866  0.9446  0.8194  0.8194  0.2351  0.6674  0.3828  0.4412
  0.4133

 Free energy of the ion-electron system (eV)
  ---------------------------------------------------
  alpha Z        PSCENC =       815.87278764
  Ewald energy   TEWEN  =    164226.44806453
  -Hartree energ DENC   =   -211579.43942589
  -exchange      EXHF   =         0.00000000
  -V(xc)+E(xc)   XCENC  =      1581.39122698
  PAW double counting   =     46421.61082925   -50263.10203908
  entropy T*S    EENTRO =        -0.00457677
  eigenvalues    EBANDS =     -1348.87367650
  atomic energy  EATOM  =     50037.92390023
  Solvation  Ediel_sol  =         0.00000000
  ---------------------------------------------------
  free energy    TOTEN  =      -108.17290963 eV

  energy without entropy =     -108.16833286  energy(sigma->0) =     -108.17176544


--------------------------------------------------------------------------------------------------------




--------------------------------------- Iteration      1(  24)  ---------------------------------------


    POTLOK:  cpu time    0.0945: real time    0.0964
    SETDIJ:  cpu time    0.0058: real time    0.0058
    EDDIAG:  cpu time    3.1769: real time    3.1995
  RMM-DIIS:  cpu time   10.7096: real time   10.7842
    ORTHCH:  cpu time    0.7083: real time    0.7119
       DOS:  cpu time    0.0010: real time    0.0010
    CHARGE:  cpu time    0.9276: real time    0.9341
    MIXING:  cpu time    0.0049: real time    0.0049
    --------------------------------------------
      LOOP:  cpu time   15.6286: real time   15.7380

 eigenvalue-minimisations  :  4007
 total energy-change (2. order) : 0.1620600E-02  (-0.2287652E-03)
 number of electron     395.9998001 magnetization 
 augmentation part      253.5904446 magnetization 

 DIPCOR: dipole corrections for dipol
 direction  3 min pos   150,
 dipolmoment           0.000000      0.000000      1.148567 electrons x Angstroem
 Tr[quadrupol]     -4132.353405

 energy correction for charged system         0.000000 eV
 dipol+quadrupol energy correction           -0.090418 eV
 added-field ion interaction         90.377188 eV  (added to PSCEN)


 Broyden mixing:
  rms(total) = 0.46518E-02    rms(broyden)= 0.46515E-02
  rms(prec ) = 0.62586E-02
  weight for this iteration     100.00

 eigenvalues of (default mixing * dielectric matrix)
  average eigenvalue GAMMA=   1.0802
  2.9683  2.9683  1.5417  0.2351  0.9467  0.8168  0.8168  0.7155  0.7155  0.3827
  0.4416  0.4137

 Free energy of the ion-electron system (eV)
  ---------------------------------------------------
  alpha Z        PSCENC =       808.35936590
  Ewald energy   TEWEN  =    164226.44806453
  -Hartree energ DENC   =   -211595.95471197
  -exchange      EXHF   =         0.00000000
  -V(xc)+E(xc)   XCENC  =      1581.50414737
  PAW double counting   =     46409.43422126   -50250.47684067
  entropy T*S    EENTRO =        -0.00739704
  eigenvalues    EBANDS =     -1325.40203863
  atomic energy  EATOM  =     50037.92390023
  Solvation  Ediel_sol  =         0.00000000
  ---------------------------------------------------
  free energy    TOTEN  =      -108.17128903 eV

  energy without entropy =     -108.16389199  energy(sigma->0) =     -108.16943977


--------------------------------------------------------------------------------------------------------




--------------------------------------- Iteration      1(  25)  ---------------------------------------


    POTLOK:  cpu time    0.0944: real time    0.0954
    SETDIJ:  cpu time    0.0053: real time    0.0054
    EDDIAG:  cpu time    3.1289: real time    3.1503
  RMM-DIIS:  cpu time   10.5426: real time   10.6124
    ORTHCH:  cpu time    0.6994: real time    0.7033
       DOS:  cpu time    0.0010: real time    0.0010
    CHARGE:  cpu time    0.8415: real time    0.8469
    MIXING:  cpu time    0.0067: real time    0.0067
    --------------------------------------------
      LOOP:  cpu time   15.3197: real time   15.4213

 eigenvalue-minimisations  :  4081
 total energy-change (2. order) :-0.5027265E-03  (-0.2312936E-04)
 number of electron     395.9998001 magnetization 
 augmentation part      253.5928443 magnetization 

 DIPCOR: dipole corrections for dipol
 direction  3 min pos   150,
 dipolmoment           0.000000      0.000000      1.143875 electrons x Angstroem
 Tr[quadrupol]     -4132.400587

 energy correction for charged system         0.000000 eV
 dipol+quadrupol energy correction           -0.089681 eV
 added-field ion interaction         90.616879 eV  (added to PSCEN)


 Broyden mixing:
  rms(total) = 0.39397E-02    rms(broyden)= 0.39397E-02
  rms(prec ) = 0.56861E-02
  weight for this iteration     100.00

 eigenvalues of (default mixing * dielectric matrix)
  average eigenvalue GAMMA=   1.2071
  4.0696  2.7515  1.8339  1.8339  0.9487  0.8120  0.8120  0.2351  0.7117  0.3826
  0.4170  0.4425  0.4425

 Free energy of the ion-electron system (eV)
  ---------------------------------------------------
  alpha Z        PSCENC =       808.59979414
  Ewald energy   TEWEN  =    164226.44806453
  -Hartree energ DENC   =   -211597.93293777
  -exchange      EXHF   =         0.00000000
  -V(xc)+E(xc)   XCENC  =      1581.49881029
  PAW double counting   =     46406.70770718   -50247.71171415
  entropy T*S    EENTRO =        -0.00753790
  eigenvalues    EBANDS =     -1323.69787830
  atomic energy  EATOM  =     50037.92390023
  Solvation  Ediel_sol  =         0.00000000
  ---------------------------------------------------
  free energy    TOTEN  =      -108.17179176 eV

  energy without entropy =     -108.16425386  energy(sigma->0) =     -108.16990728


--------------------------------------------------------------------------------------------------------




--------------------------------------- Iteration      1(  26)  ---------------------------------------


    POTLOK:  cpu time    0.0948: real time    0.0973
    SETDIJ:  cpu time    0.0068: real time    0.0069
    EDDIAG:  cpu time    3.1376: real time    3.1580
  RMM-DIIS:  cpu time   10.9004: real time   10.9734
    ORTHCH:  cpu time    0.7295: real time    0.7336
       DOS:  cpu time    0.0010: real time    0.0010
    CHARGE:  cpu time    0.9537: real time    0.9603
    MIXING:  cpu time    0.0071: real time    0.0072
    --------------------------------------------
      LOOP:  cpu time   15.8310: real time   15.9378

 eigenvalue-minimisations  :  4013
 total energy-change (2. order) :-0.1134471E-02  (-0.2721112E-04)
 number of electron     395.9998001 magnetization 
 augmentation part      253.6017633 magnetization 

 DIPCOR: dipole corrections for dipol
 direction  3 min pos   150,
 dipolmoment           0.000000      0.000000      1.137856 electrons x Angstroem
 Tr[quadrupol]     -4132.455672

 energy correction for charged system         0.000000 eV
 dipol+quadrupol energy correction           -0.088740 eV
 added-field ion interaction         90.924378 eV  (added to PSCEN)


 Broyden mixing:
  rms(total) = 0.23479E-02    rms(broyden)= 0.23478E-02
  rms(prec ) = 0.41193E-02
  weight for this iteration     100.00

 eigenvalues of (default mixing * dielectric matrix)
  average eigenvalue GAMMA=   1.2796
  4.6906  2.9713  2.5235  1.2501  1.2501  0.9807  0.8102  0.8102  0.2351  0.7250
  0.3826  0.4438  0.4195  0.4215

 Free energy of the ion-electron system (eV)
  ---------------------------------------------------
  alpha Z        PSCENC =       808.90823482
  Ewald energy   TEWEN  =    164226.44806453
  -Hartree energ DENC   =   -211599.90511616
  -exchange      EXHF   =         0.00000000
  -V(xc)+E(xc)   XCENC  =      1581.47809072
  PAW double counting   =     46404.91183183   -50246.01470549
  entropy T*S    EENTRO =        -0.00748051
  eigenvalues    EBANDS =     -1321.91574621
  atomic energy  EATOM  =     50037.92390023
  Solvation  Ediel_sol  =         0.00000000
  ---------------------------------------------------
  free energy    TOTEN  =      -108.17292623 eV

  energy without entropy =     -108.16544572  energy(sigma->0) =     -108.17105610


--------------------------------------------------------------------------------------------------------




--------------------------------------- Iteration      1(  27)  ---------------------------------------


    POTLOK:  cpu time    0.1042: real time    0.1073
    SETDIJ:  cpu time    0.0066: real time    0.0066
    EDDIAG:  cpu time    3.1323: real time    3.1543
  RMM-DIIS:  cpu time   10.0899: real time   10.1568
    ORTHCH:  cpu time    0.7157: real time    0.7197
       DOS:  cpu time    0.0011: real time    0.0011
    CHARGE:  cpu time    0.8953: real time    0.9013
    MIXING:  cpu time    0.0066: real time    0.0066
    --------------------------------------------
      LOOP:  cpu time   14.9519: real time   15.0536

 eigenvalue-minimisations  :  3792
 total energy-change (2. order) :-0.9988141E-03  (-0.1777508E-04)
 number of electron     395.9998001 magnetization 
 augmentation part      253.5988269 magnetization 

 DIPCOR: dipole corrections for dipol
 direction  3 min pos   151,
 dipolmoment           0.000000      0.000000      1.136360 electrons x Angstroem
 Tr[quadrupol]     -4132.708242

 energy correction for charged system         0.000000 eV
 dipol+quadrupol energy correction           -0.088507 eV
 added-field ion interaction         82.591753 eV  (added to PSCEN)


 Broyden mixing:
  rms(total) = 0.15304E-02    rms(broyden)= 0.15303E-02
  rms(prec ) = 0.24599E-02
  weight for this iteration     100.00

 eigenvalues of (default mixing * dielectric matrix)
  average eigenvalue GAMMA=   1.2724
  4.9695  3.1389  2.5521  1.3585  1.3585  0.9713  0.8101  0.8101  0.2351  0.6825
  0.5304  0.3827  0.4118  0.4376  0.4376

 Free energy of the ion-electron system (eV)
  ---------------------------------------------------
  alpha Z        PSCENC =       800.57584271
  Ewald energy   TEWEN  =    164226.44806453
  -Hartree energ DENC   =   -211602.57364699
  -exchange      EXHF   =         0.00000000
  -V(xc)+E(xc)   XCENC  =      1581.47500747
  PAW double counting   =     46406.66147207   -50247.97816722
  entropy T*S    EENTRO =        -0.00759647
  eigenvalues    EBANDS =     -1310.69880138
  atomic energy  EATOM  =     50037.92390023
  Solvation  Ediel_sol  =         0.00000000
  ---------------------------------------------------
  free energy    TOTEN  =      -108.17392504 eV

  energy without entropy =     -108.16632858  energy(sigma->0) =     -108.17202593


--------------------------------------------------------------------------------------------------------




--------------------------------------- Iteration      1(  28)  ---------------------------------------


    POTLOK:  cpu time    0.1005: real time    0.1015
    SETDIJ:  cpu time    0.0058: real time    0.0059
    EDDIAG:  cpu time    3.1633: real time    3.1848
  RMM-DIIS:  cpu time    6.5288: real time    6.5693
    ORTHCH:  cpu time    0.7076: real time    0.7116
       DOS:  cpu time    0.0011: real time    0.0011
    CHARGE:  cpu time    0.8056: real time    0.8108
    MIXING:  cpu time    0.0074: real time    0.0074
    --------------------------------------------
      LOOP:  cpu time   11.3201: real time   11.3923

 eigenvalue-minimisations  :  2548
 total energy-change (2. order) :-0.1867528E-03  (-0.2527117E-05)
 number of electron     395.9998001 magnetization 
 augmentation part      253.5965807 magnetization 

 DIPCOR: dipole corrections for dipol
 direction  3 min pos   152,
 dipolmoment           0.000000      0.000000      1.135366 electrons x Angstroem
 Tr[quadrupol]     -4132.921971

 energy correction for charged system         0.000000 eV
 dipol+quadrupol energy correction           -0.088352 eV
 added-field ion interaction         74.224153 eV  (added to PSCEN)


 Broyden mixing:
  rms(total) = 0.95635E-03    rms(broyden)= 0.95633E-03
  rms(prec ) = 0.16923E-02
  weight for this iteration     100.00

 eigenvalues of (default mixing * dielectric matrix)
  average eigenvalue GAMMA=   1.3130
  5.2682  3.3098  2.3747  1.7104  1.7104  0.8091  0.8091  0.9863  0.9108  0.7785
  0.2351  0.3826  0.4503  0.4146  0.4291  0.4291

 Free energy of the ion-electron system (eV)
  ---------------------------------------------------
  alpha Z        PSCENC =       792.20839731
  Ewald energy   TEWEN  =    164226.44806453
  -Hartree energ DENC   =   -211603.24760198
  -exchange      EXHF   =         0.00000000
  -V(xc)+E(xc)   XCENC  =      1581.47917970
  PAW double counting   =     46407.00959109   -50248.32655861
  entropy T*S    EENTRO =        -0.00763123
  eigenvalues    EBANDS =     -1301.66145282
  atomic energy  EATOM  =     50037.92390023
  Solvation  Ediel_sol  =         0.00000000
  ---------------------------------------------------
  free energy    TOTEN  =      -108.17411180 eV

  energy without entropy =     -108.16648056  energy(sigma->0) =     -108.17220399


--------------------------------------------------------------------------------------------------------




--------------------------------------- Iteration      1(  29)  ---------------------------------------


    POTLOK:  cpu time    0.0930: real time    0.0939
    SETDIJ:  cpu time    0.0062: real time    0.0062
    EDDIAG:  cpu time    2.9688: real time    2.9876
  RMM-DIIS:  cpu time    6.9687: real time    7.0133
    ORTHCH:  cpu time    0.7125: real time    0.7164
       DOS:  cpu time    0.0012: real time    0.0012
    CHARGE:  cpu time    0.8638: real time    0.8696
    MIXING:  cpu time    0.0063: real time    0.0063
    --------------------------------------------
      LOOP:  cpu time   11.6206: real time   11.6946

 eigenvalue-minimisations  :  2506
 total energy-change (2. order) :-0.2368210E-03  (-0.3469676E-05)
 number of electron     395.9998001 magnetization 
 augmentation part      253.5948981 magnetization 

 DIPCOR: dipole corrections for dipol
 direction  3 min pos   155,
 dipolmoment           0.000000      0.000000      1.135173 electrons x Angstroem
 Tr[quadrupol]     -4133.543467

 energy correction for charged system         0.000000 eV
 dipol+quadrupol energy correction           -0.088322 eV
 added-field ion interaction         48.988280 eV  (added to PSCEN)


 Broyden mixing:
  rms(total) = 0.61437E-03    rms(broyden)= 0.61434E-03
  rms(prec ) = 0.84715E-03
  weight for this iteration     100.00

 eigenvalues of (default mixing * dielectric matrix)
  average eigenvalue GAMMA=   1.3951
  5.8963  3.5206  2.5694  2.5694  1.3113  1.3113  0.8093  0.8093  0.9761  0.8224
  0.8099  0.2351  0.3827  0.4451  0.4257  0.4190  0.4033

 Free energy of the ion-electron system (eV)
  ---------------------------------------------------
  alpha Z        PSCENC =       766.97255510
  Ewald energy   TEWEN  =    164226.44806453
  -Hartree energ DENC   =   -211604.15368156
  -exchange      EXHF   =         0.00000000
  -V(xc)+E(xc)   XCENC  =      1581.48708609
  PAW double counting   =     46407.16957087   -50248.40282912
  entropy T*S    EENTRO =        -0.00764008
  eigenvalues    EBANDS =     -1275.61137467
  atomic energy  EATOM  =     50037.92390023
  Solvation  Ediel_sol  =         0.00000000
  ---------------------------------------------------
  free energy    TOTEN  =      -108.17434862 eV

  energy without entropy =     -108.16670854  energy(sigma->0) =     -108.17243860


--------------------------------------------------------------------------------------------------------




--------------------------------------- Iteration      1(  30)  ---------------------------------------


    POTLOK:  cpu time    0.0975: real time    0.0987
    SETDIJ:  cpu time    0.0067: real time    0.0067
    EDDIAG:  cpu time    3.1322: real time    3.1536
  RMM-DIIS:  cpu time    6.5320: real time    6.5746
    ORTHCH:  cpu time    0.7249: real time    0.7288
       DOS:  cpu time    0.0010: real time    0.0011
    CHARGE:  cpu time    0.9229: real time    0.9294
    MIXING:  cpu time    0.0079: real time    0.0079
    --------------------------------------------
      LOOP:  cpu time   11.4250: real time   11.5008

 eigenvalue-minimisations  :  2332
 total energy-change (2. order) :-0.7348341E-04  (-0.1765161E-05)
 number of electron     395.9998001 magnetization 
 augmentation part      253.5956016 magnetization 

 DIPCOR: dipole corrections for dipol
 direction  3 min pos   151,
 dipolmoment           0.000000      0.000000      1.137326 electrons x Angstroem
 Tr[quadrupol]     -4132.779124

 energy correction for charged system         0.000000 eV
 dipol+quadrupol energy correction           -0.088657 eV
 added-field ion interaction         82.546970 eV  (added to PSCEN)


 Broyden mixing:
  rms(total) = 0.58654E-03    rms(broyden)= 0.58653E-03
  rms(prec ) = 0.10082E-02
  weight for this iteration     100.00

 eigenvalues of (default mixing * dielectric matrix)
  average eigenvalue GAMMA=   1.3707
  6.1291  3.5768  2.6677  2.5483  1.3297  1.3297  0.8097  0.8097  0.9817  0.8908
  0.7512  0.2351  0.5550  0.4424  0.4302  0.4146  0.3827  0.3882

 Free energy of the ion-electron system (eV)
  ---------------------------------------------------
  alpha Z        PSCENC =       800.53090935
  Ewald energy   TEWEN  =    164226.44806453
  -Hartree energ DENC   =   -211604.73976668
  -exchange      EXHF   =         0.00000000
  -V(xc)+E(xc)   XCENC  =      1581.48791180
  PAW double counting   =     46407.69767266   -50248.89673624
  entropy T*S    EENTRO =        -0.00756864
  eigenvalues    EBANDS =     -1308.61880910
  atomic energy  EATOM  =     50037.92390023
  Solvation  Ediel_sol  =         0.00000000
  ---------------------------------------------------
  free energy    TOTEN  =      -108.17442210 eV

  energy without entropy =     -108.16685346  energy(sigma->0) =     -108.17252994


--------------------------------------------------------------------------------------------------------




--------------------------------------- Iteration      1(  31)  ---------------------------------------


    POTLOK:  cpu time    0.1013: real time    0.1029
    SETDIJ:  cpu time    0.0069: real time    0.0069
    EDDIAG:  cpu time    3.1410: real time    3.1623
  RMM-DIIS:  cpu time    6.7293: real time    6.7713
    ORTHCH:  cpu time    0.7188: real time    0.7231
       DOS:  cpu time    0.0012: real time    0.0012
    CHARGE:  cpu time    0.8465: real time    0.8520
    MIXING:  cpu time    0.0089: real time    0.0090
    --------------------------------------------
      LOOP:  cpu time   11.5538: real time   11.6286

 eigenvalue-minimisations  :  2351
 total energy-change (2. order) :-0.1126299E-04  (-0.3712092E-06)
 number of electron     395.9998001 magnetization 
 augmentation part      253.5954066 magnetization 

 DIPCOR: dipole corrections for dipol
 direction  3 min pos   150,
 dipolmoment           0.000000      0.000000      1.137837 electrons x Angstroem
 Tr[quadrupol]     -4132.587934

 energy correction for charged system         0.000000 eV
 dipol+quadrupol energy correction           -0.088737 eV
 added-field ion interaction         90.925349 eV  (added to PSCEN)


 Broyden mixing:
  rms(total) = 0.54546E-03    rms(broyden)= 0.54546E-03
  rms(prec ) = 0.85512E-03
  weight for this iteration     100.00

 eigenvalues of (default mixing * dielectric matrix)
  average eigenvalue GAMMA=   1.3708
  6.3154  3.6043  2.7007  2.4830  1.3553  1.3154  1.3154  1.0051  0.8091  0.8091
  0.8190  0.8190  0.2351  0.3826  0.4463  0.4133  0.4273  0.4273  0.3625

 Free energy of the ion-electron system (eV)
  ---------------------------------------------------
  alpha Z        PSCENC =       808.90920866
  Ewald energy   TEWEN  =    164226.44806453
  -Hartree energ DENC   =   -211604.85020983
  -exchange      EXHF   =         0.00000000
  -V(xc)+E(xc)   XCENC  =      1581.48762920
  PAW double counting   =     46407.69831634   -50248.90316494
  entropy T*S    EENTRO =        -0.00756925
  eigenvalues    EBANDS =     -1316.88060830
  atomic energy  EATOM  =     50037.92390023
  Solvation  Ediel_sol  =         0.00000000
  ---------------------------------------------------
  free energy    TOTEN  =      -108.17443336 eV

  energy without entropy =     -108.16686412  energy(sigma->0) =     -108.17254105


--------------------------------------------------------------------------------------------------------




--------------------------------------- Iteration      1(  32)  ---------------------------------------


    POTLOK:  cpu time    0.1005: real time    0.1032
    SETDIJ:  cpu time    0.0053: real time    0.0053
    EDDIAG:  cpu time    2.9819: real time    3.0017
  RMM-DIIS:  cpu time    5.6550: real time    5.6966
    ORTHCH:  cpu time    0.6666: real time    0.6703
       DOS:  cpu time    0.0012: real time    0.0012
    CHARGE:  cpu time    0.7252: real time    0.7311
    MIXING:  cpu time    0.0076: real time    0.0076
    --------------------------------------------
      LOOP:  cpu time   10.1433: real time   10.2170

 eigenvalue-minimisations  :  2425
 total energy-change (2. order) :-0.5163806E-04  (-0.1972074E-06)
 number of electron     395.9998001 magnetization 
 augmentation part      253.5954927 magnetization 

 DIPCOR: dipole corrections for dipol
 direction  3 min pos   150,
 dipolmoment           0.000000      0.000000      1.139608 electrons x Angstroem
 Tr[quadrupol]     -4132.598429

 energy correction for charged system         0.000000 eV
 dipol+quadrupol energy correction           -0.089013 eV
 added-field ion interaction         90.834899 eV  (added to PSCEN)


 Broyden mixing:
  rms(total) = 0.57204E-03    rms(broyden)= 0.57203E-03
  rms(prec ) = 0.90608E-03
  weight for this iteration     100.00

 eigenvalues of (default mixing * dielectric matrix)
  average eigenvalue GAMMA=   1.4809
  6.6991  4.1019  2.9924  2.9924  2.3320  1.3283  1.3283  1.0394  0.8091  0.8091
  0.9093  0.8075  0.8075  0.2351  0.3827  0.4452  0.4258  0.4193  0.4070  0.3458

 Free energy of the ion-electron system (eV)
  ---------------------------------------------------
  alpha Z        PSCENC =       808.81848219
  Ewald energy   TEWEN  =    164226.44806453
  -Hartree energ DENC   =   -211604.97616568
  -exchange      EXHF   =         0.00000000
  -V(xc)+E(xc)   XCENC  =      1581.48680665
  PAW double counting   =     46407.52533335   -50248.74208625
  entropy T*S    EENTRO =        -0.00757554
  eigenvalues    EBANDS =     -1316.65124448
  atomic energy  EATOM  =     50037.92390023
  Solvation  Ediel_sol  =         0.00000000
  ---------------------------------------------------
  free energy    TOTEN  =      -108.17448500 eV

  energy without entropy =     -108.16690946  energy(sigma->0) =     -108.17259112


--------------------------------------------------------------------------------------------------------




--------------------------------------- Iteration      1(  33)  ---------------------------------------


    POTLOK:  cpu time    0.0852: real time    0.0869
    SETDIJ:  cpu time    0.0055: real time    0.0055
    EDDIAG:  cpu time    2.8760: real time    2.8944
  RMM-DIIS:  cpu time    5.3641: real time    5.4019
    ORTHCH:  cpu time    0.7075: real time    0.7114
       DOS:  cpu time    0.0011: real time    0.0011
    CHARGE:  cpu time    0.7950: real time    0.8005
    MIXING:  cpu time    0.0080: real time    0.0087
    --------------------------------------------
      LOOP:  cpu time    9.8423: real time    9.9106

 eigenvalue-minimisations  :  2310
 total energy-change (2. order) :-0.1029080E-03  (-0.5761216E-06)
 number of electron     395.9998001 magnetization 
 augmentation part      253.5959862 magnetization 

 DIPCOR: dipole corrections for dipol
 direction  3 min pos   151,
 dipolmoment           0.000000      0.000000      1.144085 electrons x Angstroem
 Tr[quadrupol]     -4132.820611

 energy correction for charged system         0.000000 eV
 dipol+quadrupol energy correction           -0.089714 eV
 added-field ion interaction         82.233596 eV  (added to PSCEN)


 Broyden mixing:
  rms(total) = 0.49307E-03    rms(broyden)= 0.49306E-03
  rms(prec ) = 0.11150E-02
  weight for this iteration     100.00

 eigenvalues of (default mixing * dielectric matrix)
  average eigenvalue GAMMA=   1.4877
  6.7490  4.7644  2.9951  2.9951  2.3329  1.3032  1.3032  1.1713  0.8095  0.8095
  0.9469  0.9469  0.2351  0.7320  0.7320  0.3827  0.4448  0.4273  0.4172  0.4044
  0.3379

 Free energy of the ion-electron system (eV)
  ---------------------------------------------------
  alpha Z        PSCENC =       800.21647810
  Ewald energy   TEWEN  =    164226.44806453
  -Hartree energ DENC   =   -211605.25648052
  -exchange      EXHF   =         0.00000000
  -V(xc)+E(xc)   XCENC  =      1581.48558333
  PAW double counting   =     46407.19652684   -50248.42184399
  entropy T*S    EENTRO =        -0.00758671
  eigenvalues    EBANDS =     -1307.75922972
  atomic energy  EATOM  =     50037.92390023
  Solvation  Ediel_sol  =         0.00000000
  ---------------------------------------------------
  free energy    TOTEN  =      -108.17458791 eV

  energy without entropy =     -108.16700120  energy(sigma->0) =     -108.17269123


--------------------------------------------------------------------------------------------------------




--------------------------------------- Iteration      1(  34)  ---------------------------------------


    POTLOK:  cpu time    0.0989: real time    0.1000
    SETDIJ:  cpu time    0.0065: real time    0.0065
    EDDIAG:  cpu time    3.0248: real time    3.0443
  RMM-DIIS:  cpu time    6.2759: real time    6.3150
    ORTHCH:  cpu time    0.6945: real time    0.6985
       DOS:  cpu time    0.0010: real time    0.0010
    CHARGE:  cpu time    0.8412: real time    0.8484
    MIXING:  cpu time    0.0090: real time    0.0091
    --------------------------------------------
      LOOP:  cpu time   10.9519: real time   11.0229

 eigenvalue-minimisations  :  2277
 total energy-change (2. order) :-0.2523486E-04  (-0.1731994E-06)
 number of electron     395.9998001 magnetization 
 augmentation part      253.5955744 magnetization 

 DIPCOR: dipole corrections for dipol
 direction  3 min pos   152,
 dipolmoment           0.000000      0.000000      1.144721 electrons x Angstroem
 Tr[quadrupol]     -4133.026083

 energy correction for charged system         0.000000 eV
 dipol+quadrupol energy correction           -0.089814 eV
 added-field ion interaction         73.834566 eV  (added to PSCEN)


 Broyden mixing:
  rms(total) = 0.33331E-03    rms(broyden)= 0.33330E-03
  rms(prec ) = 0.47482E-03
  weight for this iteration     100.00

 eigenvalues of (default mixing * dielectric matrix)
  average eigenvalue GAMMA=   1.5390
  6.3689  6.3689  3.0431  3.0431  2.3141  1.8831  1.2866  1.2866  1.0701  0.8092
  0.8092  0.9258  0.7901  0.7901  0.2351  0.3827  0.4465  0.4148  0.4302  0.4302
  0.3961  0.3329

 Free energy of the ion-electron system (eV)
  ---------------------------------------------------
  alpha Z        PSCENC =       791.81734862
  Ewald energy   TEWEN  =    164226.44806453
  -Hartree energ DENC   =   -211605.31850137
  -exchange      EXHF   =         0.00000000
  -V(xc)+E(xc)   XCENC  =      1581.48613232
  PAW double counting   =     46407.30421817   -50248.52986300
  entropy T*S    EENTRO =        -0.00760553
  eigenvalues    EBANDS =     -1299.29830711
  atomic energy  EATOM  =     50037.92390023
  Solvation  Ediel_sol  =         0.00000000
  ---------------------------------------------------
  free energy    TOTEN  =      -108.17461315 eV

  energy without entropy =     -108.16700761  energy(sigma->0) =     -108.17271176


--------------------------------------------------------------------------------------------------------




--------------------------------------- Iteration      1(  35)  ---------------------------------------


    POTLOK:  cpu time    0.0947: real time    0.0960
    SETDIJ:  cpu time    0.0060: real time    0.0060
    EDDIAG:  cpu time    2.8918: real time    2.9156
  RMM-DIIS:  cpu time    6.1143: real time    6.1551
    ORTHCH:  cpu time    0.6795: real time    0.6838
       DOS:  cpu time    0.0011: real time    0.0011
    CHARGE:  cpu time    0.7977: real time    0.8038
    MIXING:  cpu time    0.0076: real time    0.0076
    --------------------------------------------
      LOOP:  cpu time   10.5926: real time   10.6690

 eigenvalue-minimisations  :  2317
 total energy-change (2. order) :-0.1706355E-04  (-0.1269294E-06)
 number of electron     395.9998001 magnetization 
 augmentation part      253.5958292 magnetization 

 DIPCOR: dipole corrections for dipol
 direction  3 min pos   152,
 dipolmoment           0.000000      0.000000      1.145297 electrons x Angstroem
 Tr[quadrupol]     -4133.030671

 energy correction for charged system         0.000000 eV
 dipol+quadrupol energy correction           -0.089904 eV
 added-field ion interaction         73.810578 eV  (added to PSCEN)


 Broyden mixing:
  rms(total) = 0.16376E-03    rms(broyden)= 0.16375E-03
  rms(prec ) = 0.24243E-03
  weight for this iteration     100.00

 eigenvalues of (default mixing * dielectric matrix)
  average eigenvalue GAMMA=   1.6111
  7.3009  7.0121  3.2407  3.2407  2.3471  2.0869  1.2799  1.2799  1.2100  0.9559
  0.9559  0.8095  0.8095  0.7651  0.7651  0.2351  0.4450  0.3827  0.4269  0.4181
  0.4071  0.3565  0.3240

 Free energy of the ion-electron system (eV)
  ---------------------------------------------------
  alpha Z        PSCENC =       791.79327060
  Ewald energy   TEWEN  =    164226.44806453
  -Hartree energ DENC   =   -211605.35253839
  -exchange      EXHF   =         0.00000000
  -V(xc)+E(xc)   XCENC  =      1581.48601336
  PAW double counting   =     46407.36763258   -50248.59135083
  entropy T*S    EENTRO =        -0.00761831
  eigenvalues    EBANDS =     -1299.24200398
  atomic energy  EATOM  =     50037.92390023
  Solvation  Ediel_sol  =         0.00000000
  ---------------------------------------------------
  free energy    TOTEN  =      -108.17463021 eV

  energy without entropy =     -108.16701190  energy(sigma->0) =     -108.17272563


--------------------------------------------------------------------------------------------------------




--------------------------------------- Iteration      1(  36)  ---------------------------------------


    POTLOK:  cpu time    0.0917: real time    0.0927
    SETDIJ:  cpu time    0.0056: real time    0.0056
    EDDIAG:  cpu time    2.8167: real time    2.8383
  RMM-DIIS:  cpu time    6.2304: real time    6.2749
    ORTHCH:  cpu time    0.7046: real time    0.7091
       DOS:  cpu time    0.0014: real time    0.0014
    CHARGE:  cpu time    0.8246: real time    0.8312
    MIXING:  cpu time    0.0108: real time    0.0109
    --------------------------------------------
      LOOP:  cpu time   10.6858: real time   10.7641

 eigenvalue-minimisations  :  2391
 total energy-change (2. order) :-0.6041255E-04  (-0.1714124E-05)
 number of electron     395.9998001 magnetization 
 augmentation part      253.5960554 magnetization 

 DIPCOR: dipole corrections for dipol
 direction  3 min pos   162,
 dipolmoment           0.000000      0.000000      1.146931 electrons x Angstroem
 Tr[quadrupol]     -4135.027620

 energy correction for charged system         0.000000 eV
 dipol+quadrupol energy correction           -0.090161 eV
 added-field ion interaction         -9.848772 eV  (added to PSCEN)


 Broyden mixing:
  rms(total) = 0.16311E-03    rms(broyden)= 0.16310E-03
  rms(prec ) = 0.44826E-03
  weight for this iteration     100.00

 eigenvalues of (default mixing * dielectric matrix)
  average eigenvalue GAMMA=   1.6665
  8.9663  6.8416  3.2991  3.2991  2.4518  2.4518  1.2717  1.2717  1.1204  1.0635
  1.0635  0.8095  0.8095  0.8377  0.7329  0.7329  0.2351  0.3827  0.4449  0.4271
  0.4176  0.4059  0.3466  0.3128

 Free energy of the ion-electron system (eV)
  ---------------------------------------------------
  alpha Z        PSCENC =       708.13366324
  Ewald energy   TEWEN  =    164226.44806453
  -Hartree energ DENC   =   -211605.35497117
  -exchange      EXHF   =         0.00000000
  -V(xc)+E(xc)   XCENC  =      1581.48526528
  PAW double counting   =     46407.34767443   -50248.57346920
  entropy T*S    EENTRO =        -0.00760894
  eigenvalues    EBANDS =     -1215.57720901
  atomic energy  EATOM  =     50037.92390023
  Solvation  Ediel_sol  =         0.00000000
  ---------------------------------------------------
  free energy    TOTEN  =      -108.17469062 eV

  energy without entropy =     -108.16708168  energy(sigma->0) =     -108.17278839


--------------------------------------------------------------------------------------------------------




--------------------------------------- Iteration      1(  37)  ---------------------------------------


    POTLOK:  cpu time    0.0903: real time    0.0915
    SETDIJ:  cpu time    0.0058: real time    0.0058
    EDDIAG:  cpu time    2.9050: real time    2.9280
  RMM-DIIS:  cpu time    5.5014: real time    5.5399
    ORTHCH:  cpu time    0.6858: real time    0.6892
       DOS:  cpu time    0.0011: real time    0.0011
    --------------------------------------------
      LOOP:  cpu time    9.1893: real time    9.2555

 eigenvalue-minimisations  :  2193
 total energy-change (2. order) : 0.5264672E-05  (-0.1153485E-06)
 number of electron     395.9998001 magnetization 
 augmentation part      253.5960554 magnetization 

 DIPCOR: dipole corrections for dipol
 direction  3 min pos   160,
 dipolmoment           0.000000      0.000000      1.146433 electrons x Angstroem
 Tr[quadrupol]     -4134.629433

 energy correction for charged system         0.000000 eV
 dipol+quadrupol energy correction           -0.090083 eV
 added-field ion interaction          6.871418 eV  (added to PSCEN)


 Free energy of the ion-electron system (eV)
  ---------------------------------------------------
  alpha Z        PSCENC =       724.85393126
  Ewald energy   TEWEN  =    164226.44806453
  -Hartree energ DENC   =   -211605.35414588
  -exchange      EXHF   =         0.00000000
  -V(xc)+E(xc)   XCENC  =      1581.48513959
  PAW double counting   =     46407.39391555   -50248.61927593
  entropy T*S    EENTRO =        -0.00762592
  eigenvalues    EBANDS =     -1232.29858879
  atomic energy  EATOM  =     50037.92390023
  Solvation  Ediel_sol  =         0.00000000
  ---------------------------------------------------
  free energy    TOTEN  =      -108.17468536 eV

  energy without entropy =     -108.16705944  energy(sigma->0) =     -108.17277888


--------------------------------------------------------------------------------------------------------




 average (electrostatic) potential at core
  the test charge radii are     0.9430
  (the norm of the test charge is              1.0000)
       1 -71.4288       2 -71.4291       3 -71.4296       4 -71.4280       5 -71.4273
       6 -71.4283       7 -71.4286       8 -71.4289       9 -71.4295      10 -71.7958
      11 -71.8048      12 -71.7936      13 -71.8157      14 -71.8328      15 -71.8217
      16 -71.8156      17 -71.8326      18 -71.8213      19 -71.7959      20 -71.7894
      21 -71.7898      22 -71.7811      23 -71.7759      24 -71.7818      25 -71.7955
      26 -71.7897      27 -71.7910      28 -71.4406      29 -71.4462      30 -71.4407
      31 -71.4144      32 -71.3871      33 -71.3891      34 -71.4163      35 -71.3841
      36 -71.3938
 
 
 
 E-fermi :  -0.4095     XC(G=0):  -4.9898     alpha+bet : -4.3070


 k-point     1 :       0.1250    0.1250    0.0000
  band No.  band energies     occupation 
      1      -8.8206      2.00000
      2      -7.2742      2.00000
      3      -6.9962      2.00000
      4      -6.9900      2.00000
      5      -6.0121      2.00000
      6      -6.0059      2.00000
      7      -5.7595      2.00000
      8      -5.7527      2.00000
      9      -5.5588      2.00000
     10      -5.3798      2.00000
     11      -5.2466      2.00000
     12      -5.2400      2.00000
     13      -5.0277      2.00000
     14      -5.0255      2.00000
     15      -4.9274      2.00000
     16      -4.8457      2.00000
     17      -4.6278      2.00000
     18      -4.6016      2.00000
     19      -4.5918      2.00000
     20      -4.5714      2.00000
     21      -4.5640      2.00000
     22      -4.5181      2.00000
     23      -4.4479      2.00000
     24      -4.3887      2.00000
     25      -4.3873      2.00000
     26      -4.3259      2.00000
     27      -4.3125      2.00000
     28      -4.3084      2.00000
     29      -4.2739      2.00000
     30      -4.2688      2.00000
     31      -4.2627      2.00000
     32      -4.2523      2.00000
     33      -4.2451      2.00000
     34      -4.1773      2.00000
     35      -4.1717      2.00000
     36      -4.1687      2.00000
     37      -4.1628      2.00000
     38      -4.1535      2.00000
     39      -4.0731      2.00000
     40      -4.0693      2.00000
     41      -4.0216      2.00000
     42      -4.0052      2.00000
     43      -3.9807      2.00000
     44      -3.9742      2.00000
     45      -3.8873      2.00000
     46      -3.7765      2.00000
     47      -3.7732      2.00000
     48      -3.7628      2.00000
     49      -3.7570      2.00000
     50      -3.7242      2.00000
     51      -3.6971      2.00000
     52      -3.6758      2.00000
     53      -3.6693      2.00000
     54      -3.6672      2.00000
     55      -3.6253      2.00000
     56      -3.5588      2.00000
     57      -3.5573      2.00000
     58      -3.5376      2.00000
     59      -3.4967      2.00000
     60      -3.4932      2.00000
     61      -3.4899      2.00000
     62      -3.4671      2.00000
     63      -3.4454      2.00000
     64      -3.4398      2.00000
     65      -3.4366      2.00000
     66      -3.4207      2.00000
     67      -3.4134      2.00000
     68      -3.4084      2.00000
     69      -3.3574      2.00000
     70      -3.3545      2.00000
     71      -3.3494      2.00000
     72      -3.2525      2.00000
     73      -3.2431      2.00000
     74      -3.2326      2.00000
     75      -3.2240      2.00000
     76      -3.1972      2.00000
     77      -3.1837      2.00000
     78      -3.1785      2.00000
     79      -3.1438      2.00000
     80      -3.1388      2.00000
     81      -3.1296      2.00000
     82      -3.1215      2.00000
     83      -3.1165      2.00000
     84      -3.1114      2.00000
     85      -3.0942      2.00000
     86      -3.0910      2.00000
     87      -3.0859      2.00000
     88      -3.0807      2.00000
     89      -3.0774      2.00000
     90      -3.0674      2.00000
     91      -3.0587      2.00000
     92      -3.0495      2.00000
     93      -3.0404      2.00000
     94      -3.0272      2.00000
     95      -3.0112      2.00000
     96      -3.0074      2.00000
     97      -2.9617      2.00000
     98      -2.9577      2.00000
     99      -2.9123      2.00000
    100      -2.8588      2.00000
    101      -2.8571      2.00000
    102      -2.8258      2.00000
    103      -2.8206      2.00000
    104      -2.7156      2.00000
    105      -2.7046      2.00000
    106      -2.6983      2.00000
    107      -2.6954      2.00000
    108      -2.6660      2.00000
    109      -2.6595      2.00000
    110      -2.6481      2.00000
    111      -2.6427      2.00000
    112      -2.6282      2.00000
    113      -2.6012      2.00000
    114      -2.5987      2.00000
    115      -2.5964      2.00000
    116      -2.5919      2.00000
    117      -2.5711      2.00000
    118      -2.5649      2.00000
    119      -2.5609      2.00000
    120      -2.5576      2.00000
    121      -2.5436      2.00000
    122      -2.5392      2.00000
    123      -2.5174      2.00000
    124      -2.4974      2.00000
    125      -2.4913      2.00000
    126      -2.4887      2.00000
    127      -2.4842      2.00000
    128      -2.4704      2.00000
    129      -2.4692      2.00000
    130      -2.4630      2.00000
    131      -2.4617      2.00000
    132      -2.4574      2.00000
    133      -2.4533      2.00000
    134      -2.4518      2.00000
    135      -2.4393      2.00000
    136      -2.4363      2.00000
    137      -2.3903      2.00000
    138      -2.3733      2.00000
    139      -2.3399      2.00000
    140      -2.3152      2.00000
    141      -2.3063      2.00000
    142      -2.3008      2.00000
    143      -2.2846      2.00000
    144      -2.2737      2.00000
    145      -2.2708      2.00000
    146      -2.2691      2.00000
    147      -2.2614      2.00000
    148      -2.2595      2.00000
    149      -2.2575      2.00000
    150      -2.2525      2.00000
    151      -2.2232      2.00000
    152      -2.2214      2.00000
    153      -2.1736      2.00000
    154      -2.1419      2.00000
    155      -2.1398      2.00000
    156      -2.1312      2.00000
    157      -2.1294      2.00000
    158      -2.1197      2.00000
    159      -2.1158      2.00000
    160      -2.1054      2.00000
    161      -2.0992      2.00000
    162      -2.0971      2.00000
    163      -2.0954      2.00000
    164      -2.0941      2.00000
    165      -2.0929      2.00000
    166      -2.0843      2.00000
    167      -2.0811      2.00000
    168      -2.0788      2.00000
    169      -2.0552      2.00000
    170      -2.0538      2.00000
    171      -2.0174      2.00000
    172      -2.0148      2.00000
    173      -2.0133      2.00000
    174      -2.0088      2.00000
    175      -2.0058      2.00000
    176      -1.9679      2.00000
    177      -1.9327      2.00000
    178      -1.9315      2.00000
    179      -1.9304      2.00000
    180      -1.9276      2.00000
    181      -1.9205      2.00000
    182      -1.9149      2.00000
    183      -1.9138      2.00000
    184      -1.8999      2.00000
    185      -1.8799      2.00000
    186      -1.8696      2.00000
    187      -1.8692      2.00000
    188      -1.8674      2.00000
    189      -1.8602      2.00000
    190      -1.8571      2.00000
    191      -1.8526      2.00000
    192      -1.8073      2.00000
    193      -1.3867      2.00000
    194      -1.3834      2.00000
    195      -1.1278      1.99998
    196      -1.1263      1.99997
    197      -1.0484      1.99977
    198      -0.7756      1.99306
    199      -0.6622      2.06351
    200      -0.4347      1.26373
    201      -0.4307      1.22210
    202      -0.1618     -0.06833
    203      -0.1560     -0.06273
    204       0.6992      0.00000
    205       0.7759      0.00000
    206       0.8855      0.00000
    207       1.2641      0.00000
    208       1.2706      0.00000
    209       1.7088      0.00000
    210       1.7105      0.00000
    211       1.8091      0.00000
    212       1.8210      0.00000
    213       2.5226      0.00000
    214       3.0247      0.00000
    215       3.0835      0.00000
    216       3.0883      0.00000
    217       3.2224      0.00000
    218       3.3956      0.00000
    219       3.4005      0.00000
    220       3.5689      0.00000
    221       3.6108      0.00000
    222       3.6163      0.00000
    223       3.7444      0.00000
    224       3.7467      0.00000
    225       3.9929      0.00000
    226       4.4526      0.00000
    227       4.4592      0.00000
    228       4.4591      0.00000
    229       4.4637      0.00000
    230       4.7969      0.00000
    231       4.7999      0.00000
    232       4.8286      0.00000
    233       5.0531      0.00000
    234       5.0578      0.00000
    235       5.2633      0.00000
    236       5.2647      0.00000
    237       5.4223      0.00000
    238       5.4379      0.00000
    239       5.4796      0.00000
    240       5.7833      0.00000

 k-point     2 :       0.3750    0.1250    0.0000
  band No.  band energies     occupation 
      1      -8.4961      2.00000
      2      -7.8679      2.00000
      3      -6.9745      2.00000
      4      -6.7077      2.00000
      5      -6.4226      2.00000
      6      -6.1869      2.00000
      7      -5.7693      2.00000
      8      -5.5024      2.00000
      9      -5.3781      2.00000
     10      -5.2351      2.00000
     11      -5.1404      2.00000
     12      -5.0698      2.00000
     13      -5.0431      2.00000
     14      -5.0326      2.00000
     15      -4.7896      2.00000
     16      -4.7625      2.00000
     17      -4.7564      2.00000
     18      -4.6997      2.00000
     19      -4.6921      2.00000
     20      -4.6534      2.00000
     21      -4.5395      2.00000
     22      -4.4960      2.00000
     23      -4.4819      2.00000
     24      -4.4511      2.00000
     25      -4.4090      2.00000
     26      -4.3851      2.00000
     27      -4.3662      2.00000
     28      -4.3540      2.00000
     29      -4.3477      2.00000
     30      -4.3202      2.00000
     31      -4.2955      2.00000
     32      -4.2857      2.00000
     33      -4.2042      2.00000
     34      -4.1947      2.00000
     35      -4.1173      2.00000
     36      -4.1057      2.00000
     37      -4.0817      2.00000
     38      -4.0772      2.00000
     39      -4.0177      2.00000
     40      -4.0106      2.00000
     41      -3.9924      2.00000
     42      -3.9672      2.00000
     43      -3.9493      2.00000
     44      -3.8925      2.00000
     45      -3.8891      2.00000
     46      -3.8787      2.00000
     47      -3.8271      2.00000
     48      -3.7876      2.00000
     49      -3.7810      2.00000
     50      -3.7575      2.00000
     51      -3.7556      2.00000
     52      -3.6930      2.00000
     53      -3.6590      2.00000
     54      -3.6386      2.00000
     55      -3.6235      2.00000
     56      -3.6107      2.00000
     57      -3.5944      2.00000
     58      -3.5815      2.00000
     59      -3.5454      2.00000
     60      -3.5357      2.00000
     61      -3.5163      2.00000
     62      -3.5119      2.00000
     63      -3.4980      2.00000
     64      -3.4972      2.00000
     65      -3.4750      2.00000
     66      -3.4684      2.00000
     67      -3.4492      2.00000
     68      -3.3834      2.00000
     69      -3.3429      2.00000
     70      -3.3164      2.00000
     71      -3.2990      2.00000
     72      -3.2969      2.00000
     73      -3.2817      2.00000
     74      -3.2643      2.00000
     75      -3.2205      2.00000
     76      -3.1961      2.00000
     77      -3.1740      2.00000
     78      -3.1706      2.00000
     79      -3.1614      2.00000
     80      -3.1561      2.00000
     81      -3.1495      2.00000
     82      -3.1444      2.00000
     83      -3.1383      2.00000
     84      -3.1266      2.00000
     85      -3.1185      2.00000
     86      -3.1003      2.00000
     87      -3.0909      2.00000
     88      -3.0856      2.00000
     89      -3.0636      2.00000
     90      -3.0554      2.00000
     91      -3.0495      2.00000
     92      -3.0374      2.00000
     93      -3.0220      2.00000
     94      -2.9887      2.00000
     95      -2.9799      2.00000
     96      -2.9514      2.00000
     97      -2.9302      2.00000
     98      -2.9224      2.00000
     99      -2.8677      2.00000
    100      -2.8585      2.00000
    101      -2.8184      2.00000
    102      -2.8141      2.00000
    103      -2.8028      2.00000
    104      -2.8003      2.00000
    105      -2.7926      2.00000
    106      -2.7911      2.00000
    107      -2.7719      2.00000
    108      -2.7670      2.00000
    109      -2.7569      2.00000
    110      -2.7361      2.00000
    111      -2.7208      2.00000
    112      -2.7088      2.00000
    113      -2.6841      2.00000
    114      -2.6793      2.00000
    115      -2.6584      2.00000
    116      -2.6532      2.00000
    117      -2.6496      2.00000
    118      -2.6458      2.00000
    119      -2.6274      2.00000
    120      -2.6148      2.00000
    121      -2.6000      2.00000
    122      -2.5953      2.00000
    123      -2.5700      2.00000
    124      -2.5663      2.00000
    125      -2.5572      2.00000
    126      -2.5004      2.00000
    127      -2.4738      2.00000
    128      -2.4514      2.00000
    129      -2.4435      2.00000
    130      -2.4414      2.00000
    131      -2.4273      2.00000
    132      -2.4211      2.00000
    133      -2.3995      2.00000
    134      -2.3878      2.00000
    135      -2.3834      2.00000
    136      -2.3806      2.00000
    137      -2.3693      2.00000
    138      -2.3643      2.00000
    139      -2.3497      2.00000
    140      -2.3406      2.00000
    141      -2.3318      2.00000
    142      -2.3301      2.00000
    143      -2.3216      2.00000
    144      -2.3178      2.00000
    145      -2.2998      2.00000
    146      -2.2925      2.00000
    147      -2.2753      2.00000
    148      -2.2675      2.00000
    149      -2.2368      2.00000
    150      -2.2316      2.00000
    151      -2.2265      2.00000
    152      -2.1946      2.00000
    153      -2.1773      2.00000
    154      -2.1732      2.00000
    155      -2.1613      2.00000
    156      -2.1590      2.00000
    157      -2.1255      2.00000
    158      -2.1189      2.00000
    159      -2.0994      2.00000
    160      -2.0944      2.00000
    161      -2.0936      2.00000
    162      -2.0856      2.00000
    163      -2.0772      2.00000
    164      -2.0743      2.00000
    165      -2.0696      2.00000
    166      -2.0575      2.00000
    167      -2.0369      2.00000
    168      -2.0354      2.00000
    169      -2.0343      2.00000
    170      -2.0321      2.00000
    171      -2.0219      2.00000
    172      -2.0120      2.00000
    173      -2.0085      2.00000
    174      -2.0034      2.00000
    175      -1.9889      2.00000
    176      -1.9687      2.00000
    177      -1.9498      2.00000
    178      -1.9418      2.00000
    179      -1.9289      2.00000
    180      -1.9249      2.00000
    181      -1.9162      2.00000
    182      -1.8864      2.00000
    183      -1.8747      2.00000
    184      -1.8721      2.00000
    185      -1.8567      2.00000
    186      -1.8339      2.00000
    187      -1.7803      2.00000
    188      -1.7425      2.00000
    189      -1.7181      2.00000
    190      -1.6588      2.00000
    191      -1.6184      2.00000
    192      -1.5521      2.00000
    193      -1.4825      2.00000
    194      -1.1294      1.99998
    195      -1.0394      1.99971
    196      -0.9057      1.99561
    197      -0.7341      2.00676
    198      -0.3112      0.13227
    199      -0.1278     -0.03645
    200      -0.1178     -0.02819
    201      -0.0386      0.00770
    202       0.0629      0.00607
    203       0.2053      0.00042
    204       0.4001      0.00000
    205       0.6369      0.00000
    206       0.8357      0.00000
    207       1.2123      0.00000
    208       1.3487      0.00000
    209       1.6269      0.00000
    210       1.6370      0.00000
    211       2.1267      0.00000
    212       2.2211      0.00000
    213       2.2596      0.00000
    214       2.3110      0.00000
    215       2.3237      0.00000
    216       2.6498      0.00000
    217       2.7718      0.00000
    218       2.8491      0.00000
    219       2.8531      0.00000
    220       3.3038      0.00000
    221       3.3095      0.00000
    222       3.4993      0.00000
    223       3.7140      0.00000
    224       3.7436      0.00000
    225       3.7669      0.00000
    226       3.9553      0.00000
    227       4.0363      0.00000
    228       4.3035      0.00000
    229       4.4694      0.00000
    230       4.5832      0.00000
    231       4.5990      0.00000
    232       4.7828      0.00000
    233       4.8958      0.00000
    234       4.9279      0.00000
    235       5.0797      0.00000
    236       5.1231      0.00000
    237       5.1499      0.00000
    238       5.3383      0.00000
    239       5.4270      0.00000
    240       5.5477      0.00000

 k-point     3 :      -0.3750    0.1250    0.0000
  band No.  band energies     occupation 
      1      -8.4961      2.00000
      2      -7.8679      2.00000
      3      -6.9745      2.00000
      4      -6.7078      2.00000
      5      -6.4226      2.00000
      6      -6.1869      2.00000
      7      -5.7693      2.00000
      8      -5.5024      2.00000
      9      -5.3781      2.00000
     10      -5.2352      2.00000
     11      -5.1404      2.00000
     12      -5.0698      2.00000
     13      -5.0434      2.00000
     14      -5.0323      2.00000
     15      -4.7896      2.00000
     16      -4.7623      2.00000
     17      -4.7566      2.00000
     18      -4.6995      2.00000
     19      -4.6919      2.00000
     20      -4.6540      2.00000
     21      -4.5394      2.00000
     22      -4.4959      2.00000
     23      -4.4818      2.00000
     24      -4.4511      2.00000
     25      -4.4090      2.00000
     26      -4.3854      2.00000
     27      -4.3662      2.00000
     28      -4.3541      2.00000
     29      -4.3473      2.00000
     30      -4.3204      2.00000
     31      -4.2957      2.00000
     32      -4.2854      2.00000
     33      -4.2047      2.00000
     34      -4.1942      2.00000
     35      -4.1174      2.00000
     36      -4.1059      2.00000
     37      -4.0816      2.00000
     38      -4.0771      2.00000
     39      -4.0181      2.00000
     40      -4.0109      2.00000
     41      -3.9922      2.00000
     42      -3.9666      2.00000
     43      -3.9495      2.00000
     44      -3.8925      2.00000
     45      -3.8890      2.00000
     46      -3.8787      2.00000
     47      -3.8272      2.00000
     48      -3.7878      2.00000
     49      -3.7811      2.00000
     50      -3.7571      2.00000
     51      -3.7555      2.00000
     52      -3.6933      2.00000
     53      -3.6595      2.00000
     54      -3.6384      2.00000
     55      -3.6234      2.00000
     56      -3.6108      2.00000
     57      -3.5941      2.00000
     58      -3.5814      2.00000
     59      -3.5457      2.00000
     60      -3.5358      2.00000
     61      -3.5161      2.00000
     62      -3.5113      2.00000
     63      -3.4985      2.00000
     64      -3.4973      2.00000
     65      -3.4750      2.00000
     66      -3.4686      2.00000
     67      -3.4490      2.00000
     68      -3.3831      2.00000
     69      -3.3429      2.00000
     70      -3.3162      2.00000
     71      -3.2991      2.00000
     72      -3.2969      2.00000
     73      -3.2817      2.00000
     74      -3.2641      2.00000
     75      -3.2209      2.00000
     76      -3.1960      2.00000
     77      -3.1744      2.00000
     78      -3.1703      2.00000
     79      -3.1604      2.00000
     80      -3.1565      2.00000
     81      -3.1505      2.00000
     82      -3.1451      2.00000
     83      -3.1395      2.00000
     84      -3.1252      2.00000
     85      -3.1180      2.00000
     86      -3.0998      2.00000
     87      -3.0905      2.00000
     88      -3.0860      2.00000
     89      -3.0641      2.00000
     90      -3.0549      2.00000
     91      -3.0490      2.00000
     92      -3.0375      2.00000
     93      -3.0224      2.00000
     94      -2.9890      2.00000
     95      -2.9800      2.00000
     96      -2.9512      2.00000
     97      -2.9303      2.00000
     98      -2.9221      2.00000
     99      -2.8678      2.00000
    100      -2.8587      2.00000
    101      -2.8187      2.00000
    102      -2.8143      2.00000
    103      -2.8015      2.00000
    104      -2.8002      2.00000
    105      -2.7926      2.00000
    106      -2.7917      2.00000
    107      -2.7724      2.00000
    108      -2.7655      2.00000
    109      -2.7566      2.00000
    110      -2.7364      2.00000
    111      -2.7215      2.00000
    112      -2.7087      2.00000
    113      -2.6847      2.00000
    114      -2.6795      2.00000
    115      -2.6582      2.00000
    116      -2.6534      2.00000
    117      -2.6500      2.00000
    118      -2.6450      2.00000
    119      -2.6279      2.00000
    120      -2.6147      2.00000
    121      -2.6002      2.00000
    122      -2.5945      2.00000
    123      -2.5703      2.00000
    124      -2.5659      2.00000
    125      -2.5573      2.00000
    126      -2.5005      2.00000
    127      -2.4740      2.00000
    128      -2.4516      2.00000
    129      -2.4436      2.00000
    130      -2.4413      2.00000
    131      -2.4264      2.00000
    132      -2.4208      2.00000
    133      -2.4002      2.00000
    134      -2.3868      2.00000
    135      -2.3826      2.00000
    136      -2.3803      2.00000
    137      -2.3698      2.00000
    138      -2.3650      2.00000
    139      -2.3512      2.00000
    140      -2.3407      2.00000
    141      -2.3313      2.00000
    142      -2.3294      2.00000
    143      -2.3221      2.00000
    144      -2.3185      2.00000
    145      -2.2998      2.00000
    146      -2.2920      2.00000
    147      -2.2752      2.00000
    148      -2.2678      2.00000
    149      -2.2363      2.00000
    150      -2.2312      2.00000
    151      -2.2267      2.00000
    152      -2.1950      2.00000
    153      -2.1778      2.00000
    154      -2.1728      2.00000
    155      -2.1612      2.00000
    156      -2.1589      2.00000
    157      -2.1258      2.00000
    158      -2.1188      2.00000
    159      -2.0993      2.00000
    160      -2.0945      2.00000
    161      -2.0936      2.00000
    162      -2.0856      2.00000
    163      -2.0774      2.00000
    164      -2.0741      2.00000
    165      -2.0693      2.00000
    166      -2.0580      2.00000
    167      -2.0365      2.00000
    168      -2.0356      2.00000
    169      -2.0341      2.00000
    170      -2.0321      2.00000
    171      -2.0219      2.00000
    172      -2.0119      2.00000
    173      -2.0084      2.00000
    174      -2.0037      2.00000
    175      -1.9887      2.00000
    176      -1.9687      2.00000
    177      -1.9499      2.00000
    178      -1.9421      2.00000
    179      -1.9285      2.00000
    180      -1.9249      2.00000
    181      -1.9165      2.00000
    182      -1.8864      2.00000
    183      -1.8745      2.00000
    184      -1.8723      2.00000
    185      -1.8569      2.00000
    186      -1.8329      2.00000
    187      -1.7808      2.00000
    188      -1.7425      2.00000
    189      -1.7180      2.00000
    190      -1.6586      2.00000
    191      -1.6184      2.00000
    192      -1.5521      2.00000
    193      -1.4825      2.00000
    194      -1.1294      1.99998
    195      -1.0394      1.99971
    196      -0.9057      1.99561
    197      -0.7341      2.00673
    198      -0.3112      0.13206
    199      -0.1273     -0.03601
    200      -0.1181     -0.02837
    201      -0.0389      0.00765
    202       0.0628      0.00607
    203       0.2053      0.00042
    204       0.4001      0.00000
    205       0.6369      0.00000
    206       0.8357      0.00000
    207       1.2119      0.00000
    208       1.3487      0.00000
    209       1.6273      0.00000
    210       1.6371      0.00000
    211       2.1267      0.00000
    212       2.2214      0.00000
    213       2.2597      0.00000
    214       2.3112      0.00000
    215       2.3231      0.00000
    216       2.6517      0.00000
    217       2.7692      0.00000
    218       2.8483      0.00000
    219       2.8535      0.00000
    220       3.3031      0.00000
    221       3.3105      0.00000
    222       3.4993      0.00000
    223       3.7142      0.00000
    224       3.7439      0.00000
    225       3.7666      0.00000
    226       3.9560      0.00000
    227       4.0361      0.00000
    228       4.3035      0.00000
    229       4.4694      0.00000
    230       4.5829      0.00000
    231       4.5988      0.00000
    232       4.7828      0.00000
    233       4.8953      0.00000
    234       4.9279      0.00000
    235       5.0795      0.00000
    236       5.1241      0.00000
    237       5.1503      0.00000
    238       5.3387      0.00000
    239       5.4261      0.00000
    240       5.6186      0.00000

 k-point     4 :      -0.1250    0.1250    0.0000
  band No.  band energies     occupation 
      1      -8.8206      2.00000
      2      -7.2742      2.00000
      3      -6.9955      2.00000
      4      -6.9907      2.00000
      5      -6.0115      2.00000
      6      -6.0064      2.00000
      7      -5.7604      2.00000
      8      -5.7518      2.00000
      9      -5.5587      2.00000
     10      -5.3799      2.00000
     11      -5.2472      2.00000
     12      -5.2393      2.00000
     13      -5.0273      2.00000
     14      -5.0258      2.00000
     15      -4.9274      2.00000
     16      -4.8456      2.00000
     17      -4.6278      2.00000
     18      -4.6016      2.00000
     19      -4.5917      2.00000
     20      -4.5713      2.00000
     21      -4.5641      2.00000
     22      -4.5182      2.00000
     23      -4.4479      2.00000
     24      -4.3889      2.00000
     25      -4.3873      2.00000
     26      -4.3259      2.00000
     27      -4.3124      2.00000
     28      -4.3087      2.00000
     29      -4.2733      2.00000
     30      -4.2680      2.00000
     31      -4.2627      2.00000
     32      -4.2524      2.00000
     33      -4.2457      2.00000
     34      -4.1780      2.00000
     35      -4.1719      2.00000
     36      -4.1684      2.00000
     37      -4.1625      2.00000
     38      -4.1536      2.00000
     39      -4.0732      2.00000
     40      -4.0695      2.00000
     41      -4.0213      2.00000
     42      -4.0053      2.00000
     43      -3.9807      2.00000
     44      -3.9743      2.00000
     45      -3.8872      2.00000
     46      -3.7761      2.00000
     47      -3.7736      2.00000
     48      -3.7632      2.00000
     49      -3.7565      2.00000
     50      -3.7241      2.00000
     51      -3.6968      2.00000
     52      -3.6766      2.00000
     53      -3.6694      2.00000
     54      -3.6671      2.00000
     55      -3.6253      2.00000
     56      -3.5590      2.00000
     57      -3.5569      2.00000
     58      -3.5375      2.00000
     59      -3.4971      2.00000
     60      -3.4928      2.00000
     61      -3.4905      2.00000
     62      -3.4666      2.00000
     63      -3.4456      2.00000
     64      -3.4397      2.00000
     65      -3.4369      2.00000
     66      -3.4205      2.00000
     67      -3.4132      2.00000
     68      -3.4081      2.00000
     69      -3.3573      2.00000
     70      -3.3545      2.00000
     71      -3.3494      2.00000
     72      -3.2524      2.00000
     73      -3.2431      2.00000
     74      -3.2315      2.00000
     75      -3.2253      2.00000
     76      -3.1974      2.00000
     77      -3.1841      2.00000
     78      -3.1780      2.00000
     79      -3.1440      2.00000
     80      -3.1376      2.00000
     81      -3.1311      2.00000
     82      -3.1201      2.00000
     83      -3.1177      2.00000
     84      -3.1109      2.00000
     85      -3.0946      2.00000
     86      -3.0906      2.00000
     87      -3.0851      2.00000
     88      -3.0810      2.00000
     89      -3.0783      2.00000
     90      -3.0671      2.00000
     91      -3.0587      2.00000
     92      -3.0501      2.00000
     93      -3.0399      2.00000
     94      -3.0267      2.00000
     95      -3.0112      2.00000
     96      -3.0078      2.00000
     97      -2.9617      2.00000
     98      -2.9581      2.00000
     99      -2.9128      2.00000
    100      -2.8590      2.00000
    101      -2.8567      2.00000
    102      -2.8262      2.00000
    103      -2.8200      2.00000
    104      -2.7160      2.00000
    105      -2.7049      2.00000
    106      -2.6970      2.00000
    107      -2.6960      2.00000
    108      -2.6660      2.00000
    109      -2.6590      2.00000
    110      -2.6479      2.00000
    111      -2.6418      2.00000
    112      -2.6286      2.00000
    113      -2.6014      2.00000
    114      -2.5988      2.00000
    115      -2.5968      2.00000
    116      -2.5921      2.00000
    117      -2.5717      2.00000
    118      -2.5643      2.00000
    119      -2.5606      2.00000
    120      -2.5576      2.00000
    121      -2.5444      2.00000
    122      -2.5390      2.00000
    123      -2.5174      2.00000
    124      -2.4986      2.00000
    125      -2.4910      2.00000
    126      -2.4878      2.00000
    127      -2.4839      2.00000
    128      -2.4703      2.00000
    129      -2.4687      2.00000
    130      -2.4640      2.00000
    131      -2.4612      2.00000
    132      -2.4570      2.00000
    133      -2.4531      2.00000
    134      -2.4511      2.00000
    135      -2.4401      2.00000
    136      -2.4371      2.00000
    137      -2.3901      2.00000
    138      -2.3734      2.00000
    139      -2.3403      2.00000
    140      -2.3155      2.00000
    141      -2.3064      2.00000
    142      -2.3004      2.00000
    143      -2.2834      2.00000
    144      -2.2744      2.00000
    145      -2.2718      2.00000
    146      -2.2689      2.00000
    147      -2.2614      2.00000
    148      -2.2595      2.00000
    149      -2.2576      2.00000
    150      -2.2530      2.00000
    151      -2.2227      2.00000
    152      -2.2212      2.00000
    153      -2.1734      2.00000
    154      -2.1417      2.00000
    155      -2.1400      2.00000
    156      -2.1315      2.00000
    157      -2.1289      2.00000
    158      -2.1198      2.00000
    159      -2.1153      2.00000
    160      -2.1056      2.00000
    161      -2.0988      2.00000
    162      -2.0971      2.00000
    163      -2.0950      2.00000
    164      -2.0942      2.00000
    165      -2.0932      2.00000
    166      -2.0844      2.00000
    167      -2.0811      2.00000
    168      -2.0791      2.00000
    169      -2.0554      2.00000
    170      -2.0538      2.00000
    171      -2.0179      2.00000
    172      -2.0147      2.00000
    173      -2.0139      2.00000
    174      -2.0088      2.00000
    175      -2.0051      2.00000
    176      -1.9678      2.00000
    177      -1.9331      2.00000
    178      -1.9312      2.00000
    179      -1.9298      2.00000
    180      -1.9280      2.00000
    181      -1.9203      2.00000
    182      -1.9150      2.00000
    183      -1.9137      2.00000
    184      -1.8995      2.00000
    185      -1.8799      2.00000
    186      -1.8696      2.00000
    187      -1.8692      2.00000
    188      -1.8676      2.00000
    189      -1.8596      2.00000
    190      -1.8561      2.00000
    191      -1.8541      2.00000
    192      -1.8078      2.00000
    193      -1.3867      2.00000
    194      -1.3832      2.00000
    195      -1.1278      1.99998
    196      -1.1263      1.99997
    197      -1.0485      1.99977
    198      -0.7756      1.99307
    199      -0.6623      2.06342
    200      -0.4349      1.26592
    201      -0.4306      1.22119
    202      -0.1618     -0.06828
    203      -0.1560     -0.06271
    204       0.6991      0.00000
    205       0.7760      0.00000
    206       0.8854      0.00000
    207       1.2642      0.00000
    208       1.2705      0.00000
    209       1.7081      0.00000
    210       1.7109      0.00000
    211       1.8082      0.00000
    212       1.8224      0.00000
    213       2.5226      0.00000
    214       3.0241      0.00000
    215       3.0832      0.00000
    216       3.0891      0.00000
    217       3.2222      0.00000
    218       3.3944      0.00000
    219       3.4017      0.00000
    220       3.5692      0.00000
    221       3.6115      0.00000
    222       3.6154      0.00000
    223       3.7438      0.00000
    224       3.7472      0.00000
    225       3.9929      0.00000
    226       4.4527      0.00000
    227       4.4591      0.00000
    228       4.4594      0.00000
    229       4.4638      0.00000
    230       4.7969      0.00000
    231       4.8000      0.00000
    232       4.8286      0.00000
    233       5.0524      0.00000
    234       5.0586      0.00000
    235       5.2615      0.00000
    236       5.2708      0.00000
    237       5.4277      0.00000
    238       5.4383      0.00000
    239       5.4793      0.00000
    240       5.7402      0.00000

 k-point     5 :       0.1250    0.3750    0.0000
  band No.  band energies     occupation 
      1      -8.4962      2.00000
      2      -7.8681      2.00000
      3      -6.9733      2.00000
      4      -6.7091      2.00000
      5      -6.4205      2.00000
      6      -6.1882      2.00000
      7      -5.7699      2.00000
      8      -5.5028      2.00000
      9      -5.3786      2.00000
     10      -5.2353      2.00000
     11      -5.1405      2.00000
     12      -5.0701      2.00000
     13      -5.0412      2.00000
     14      -5.0336      2.00000
     15      -4.7906      2.00000
     16      -4.7622      2.00000
     17      -4.7559      2.00000
     18      -4.7008      2.00000
     19      -4.6930      2.00000
     20      -4.6522      2.00000
     21      -4.5422      2.00000
     22      -4.4915      2.00000
     23      -4.4815      2.00000
     24      -4.4456      2.00000
     25      -4.4147      2.00000
     26      -4.3772      2.00000
     27      -4.3670      2.00000
     28      -4.3584      2.00000
     29      -4.3454      2.00000
     30      -4.3170      2.00000
     31      -4.2980      2.00000
     32      -4.2921      2.00000
     33      -4.2019      2.00000
     34      -4.1952      2.00000
     35      -4.1191      2.00000
     36      -4.1081      2.00000
     37      -4.0837      2.00000
     38      -4.0747      2.00000
     39      -4.0141      2.00000
     40      -4.0103      2.00000
     41      -3.9941      2.00000
     42      -3.9665      2.00000
     43      -3.9571      2.00000
     44      -3.8914      2.00000
     45      -3.8877      2.00000
     46      -3.8765      2.00000
     47      -3.8231      2.00000
     48      -3.7846      2.00000
     49      -3.7804      2.00000
     50      -3.7621      2.00000
     51      -3.7555      2.00000
     52      -3.6952      2.00000
     53      -3.6529      2.00000
     54      -3.6434      2.00000
     55      -3.6293      2.00000
     56      -3.6057      2.00000
     57      -3.5978      2.00000
     58      -3.5844      2.00000
     59      -3.5377      2.00000
     60      -3.5328      2.00000
     61      -3.5160      2.00000
     62      -3.5110      2.00000
     63      -3.4985      2.00000
     64      -3.4905      2.00000
     65      -3.4798      2.00000
     66      -3.4723      2.00000
     67      -3.4565      2.00000
     68      -3.3824      2.00000
     69      -3.3431      2.00000
     70      -3.3123      2.00000
     71      -3.3035      2.00000
     72      -3.2984      2.00000
     73      -3.2793      2.00000
     74      -3.2670      2.00000
     75      -3.2194      2.00000
     76      -3.1982      2.00000
     77      -3.1730      2.00000
     78      -3.1678      2.00000
     79      -3.1588      2.00000
     80      -3.1551      2.00000
     81      -3.1489      2.00000
     82      -3.1452      2.00000
     83      -3.1362      2.00000
     84      -3.1325      2.00000
     85      -3.1171      2.00000
     86      -3.1037      2.00000
     87      -3.0890      2.00000
     88      -3.0873      2.00000
     89      -3.0634      2.00000
     90      -3.0556      2.00000
     91      -3.0518      2.00000
     92      -3.0299      2.00000
     93      -3.0232      2.00000
     94      -2.9894      2.00000
     95      -2.9818      2.00000
     96      -2.9546      2.00000
     97      -2.9285      2.00000
     98      -2.9254      2.00000
     99      -2.8667      2.00000
    100      -2.8533      2.00000
    101      -2.8197      2.00000
    102      -2.8161      2.00000
    103      -2.8055      2.00000
    104      -2.7983      2.00000
    105      -2.7926      2.00000
    106      -2.7887      2.00000
    107      -2.7718      2.00000
    108      -2.7664      2.00000
    109      -2.7530      2.00000
    110      -2.7369      2.00000
    111      -2.7273      2.00000
    112      -2.7118      2.00000
    113      -2.6810      2.00000
    114      -2.6656      2.00000
    115      -2.6634      2.00000
    116      -2.6567      2.00000
    117      -2.6536      2.00000
    118      -2.6468      2.00000
    119      -2.6221      2.00000
    120      -2.6147      2.00000
    121      -2.6006      2.00000
    122      -2.5821      2.00000
    123      -2.5745      2.00000
    124      -2.5669      2.00000
    125      -2.5593      2.00000
    126      -2.4994      2.00000
    127      -2.4699      2.00000
    128      -2.4535      2.00000
    129      -2.4438      2.00000
    130      -2.4411      2.00000
    131      -2.4288      2.00000
    132      -2.4190      2.00000
    133      -2.3995      2.00000
    134      -2.3891      2.00000
    135      -2.3802      2.00000
    136      -2.3769      2.00000
    137      -2.3697      2.00000
    138      -2.3659      2.00000
    139      -2.3478      2.00000
    140      -2.3395      2.00000
    141      -2.3354      2.00000
    142      -2.3334      2.00000
    143      -2.3190      2.00000
    144      -2.3179      2.00000
    145      -2.2969      2.00000
    146      -2.2936      2.00000
    147      -2.2757      2.00000
    148      -2.2671      2.00000
    149      -2.2385      2.00000
    150      -2.2328      2.00000
    151      -2.2274      2.00000
    152      -2.1941      2.00000
    153      -2.1769      2.00000
    154      -2.1709      2.00000
    155      -2.1616      2.00000
    156      -2.1594      2.00000
    157      -2.1241      2.00000
    158      -2.1180      2.00000
    159      -2.0960      2.00000
    160      -2.0949      2.00000
    161      -2.0938      2.00000
    162      -2.0851      2.00000
    163      -2.0790      2.00000
    164      -2.0751      2.00000
    165      -2.0717      2.00000
    166      -2.0580      2.00000
    167      -2.0390      2.00000
    168      -2.0361      2.00000
    169      -2.0341      2.00000
    170      -2.0326      2.00000
    171      -2.0231      2.00000
    172      -2.0099      2.00000
    173      -2.0078      2.00000
    174      -2.0038      2.00000
    175      -1.9892      2.00000
    176      -1.9691      2.00000
    177      -1.9507      2.00000
    178      -1.9399      2.00000
    179      -1.9298      2.00000
    180      -1.9258      2.00000
    181      -1.9162      2.00000
    182      -1.8856      2.00000
    183      -1.8744      2.00000
    184      -1.8719      2.00000
    185      -1.8564      2.00000
    186      -1.8327      2.00000
    187      -1.7823      2.00000
    188      -1.7432      2.00000
    189      -1.7196      2.00000
    190      -1.6589      2.00000
    191      -1.6188      2.00000
    192      -1.5528      2.00000
    193      -1.4834      2.00000
    194      -1.1306      1.99998
    195      -1.0408      1.99972
    196      -0.9063      1.99565
    197      -0.7344      2.00656
    198      -0.3121      0.13759
    199      -0.1278     -0.03647
    200      -0.1163     -0.02698
    201      -0.0400      0.00749
    202       0.0611      0.00620
    203       0.2028      0.00045
    204       0.4023      0.00000
    205       0.6369      0.00000
    206       0.8349      0.00000
    207       1.2117      0.00000
    208       1.3517      0.00000
    209       1.6233      0.00000
    210       1.6400      0.00000
    211       2.1246      0.00000
    212       2.2209      0.00000
    213       2.2711      0.00000
    214       2.3030      0.00000
    215       2.3226      0.00000
    216       2.6527      0.00000
    217       2.7689      0.00000
    218       2.8487      0.00000
    219       2.8534      0.00000
    220       3.3045      0.00000
    221       3.3104      0.00000
    222       3.4993      0.00000
    223       3.7128      0.00000
    224       3.7423      0.00000
    225       3.7693      0.00000
    226       3.9568      0.00000
    227       4.0354      0.00000
    228       4.3034      0.00000
    229       4.4743      0.00000
    230       4.5789      0.00000
    231       4.6009      0.00000
    232       4.7829      0.00000
    233       4.8906      0.00000
    234       4.9349      0.00000
    235       5.0782      0.00000
    236       5.1248      0.00000
    237       5.1502      0.00000
    238       5.3374      0.00000
    239       5.4278      0.00000
    240       5.5555      0.00000

 k-point     6 :       0.3750    0.3750    0.0000
  band No.  band energies     occupation 
      1      -8.1761      2.00000
      2      -7.5627      2.00000
      3      -7.5558      2.00000
      4      -6.9719      2.00000
      5      -6.6783      2.00000
      6      -6.1433      2.00000
      7      -6.1347      2.00000
      8      -5.6345      2.00000
      9      -5.0481      2.00000
     10      -5.0411      2.00000
     11      -4.9063      2.00000
     12      -4.8651      2.00000
     13      -4.8567      2.00000
     14      -4.8121      2.00000
     15      -4.7846      2.00000
     16      -4.7810      2.00000
     17      -4.7551      2.00000
     18      -4.6045      2.00000
     19      -4.5886      2.00000
     20      -4.5842      2.00000
     21      -4.5669      2.00000
     22      -4.5623      2.00000
     23      -4.4421      2.00000
     24      -4.4390      2.00000
     25      -4.4092      2.00000
     26      -4.4024      2.00000
     27      -4.3722      2.00000
     28      -4.3659      2.00000
     29      -4.3549      2.00000
     30      -4.3523      2.00000
     31      -4.2836      2.00000
     32      -4.2629      2.00000
     33      -4.2596      2.00000
     34      -4.2547      2.00000
     35      -4.2092      2.00000
     36      -4.2046      2.00000
     37      -4.1847      2.00000
     38      -4.1259      2.00000
     39      -4.1245      2.00000
     40      -4.1169      2.00000
     41      -4.0740      2.00000
     42      -3.9489      2.00000
     43      -3.9107      2.00000
     44      -3.8721      2.00000
     45      -3.8689      2.00000
     46      -3.8078      2.00000
     47      -3.7972      2.00000
     48      -3.7828      2.00000
     49      -3.7768      2.00000
     50      -3.7698      2.00000
     51      -3.7549      2.00000
     52      -3.7491      2.00000
     53      -3.7150      2.00000
     54      -3.7062      2.00000
     55      -3.6751      2.00000
     56      -3.5892      2.00000
     57      -3.5804      2.00000
     58      -3.5730      2.00000
     59      -3.5653      2.00000
     60      -3.5277      2.00000
     61      -3.5204      2.00000
     62      -3.4837      2.00000
     63      -3.4816      2.00000
     64      -3.4444      2.00000
     65      -3.4360      2.00000
     66      -3.4174      2.00000
     67      -3.4115      2.00000
     68      -3.3969      2.00000
     69      -3.3883      2.00000
     70      -3.3396      2.00000
     71      -3.3308      2.00000
     72      -3.3100      2.00000
     73      -3.3067      2.00000
     74      -3.2966      2.00000
     75      -3.2865      2.00000
     76      -3.2516      2.00000
     77      -3.2175      2.00000
     78      -3.2111      2.00000
     79      -3.2069      2.00000
     80      -3.2025      2.00000
     81      -3.1999      2.00000
     82      -3.1915      2.00000
     83      -3.1337      2.00000
     84      -3.1235      2.00000
     85      -3.1196      2.00000
     86      -3.1021      2.00000
     87      -3.0805      2.00000
     88      -3.0776      2.00000
     89      -3.0506      2.00000
     90      -3.0465      2.00000
     91      -3.0228      2.00000
     92      -3.0182      2.00000
     93      -3.0139      2.00000
     94      -2.9757      2.00000
     95      -2.9735      2.00000
     96      -2.9222      2.00000
     97      -2.9134      2.00000
     98      -2.9091      2.00000
     99      -2.8911      2.00000
    100      -2.8743      2.00000
    101      -2.8684      2.00000
    102      -2.8347      2.00000
    103      -2.8183      2.00000
    104      -2.8092      2.00000
    105      -2.8055      2.00000
    106      -2.8030      2.00000
    107      -2.7959      2.00000
    108      -2.7933      2.00000
    109      -2.7839      2.00000
    110      -2.7742      2.00000
    111      -2.7230      2.00000
    112      -2.7192      2.00000
    113      -2.7170      2.00000
    114      -2.7105      2.00000
    115      -2.6932      2.00000
    116      -2.6857      2.00000
    117      -2.6697      2.00000
    118      -2.6675      2.00000
    119      -2.6621      2.00000
    120      -2.6586      2.00000
    121      -2.6529      2.00000
    122      -2.6484      2.00000
    123      -2.6413      2.00000
    124      -2.6297      2.00000
    125      -2.6270      2.00000
    126      -2.6262      2.00000
    127      -2.5945      2.00000
    128      -2.5714      2.00000
    129      -2.5678      2.00000
    130      -2.5454      2.00000
    131      -2.4870      2.00000
    132      -2.4833      2.00000
    133      -2.4357      2.00000
    134      -2.4322      2.00000
    135      -2.3858      2.00000
    136      -2.3843      2.00000
    137      -2.3834      2.00000
    138      -2.3518      2.00000
    139      -2.3305      2.00000
    140      -2.3268      2.00000
    141      -2.3238      2.00000
    142      -2.3213      2.00000
    143      -2.3141      2.00000
    144      -2.3108      2.00000
    145      -2.3053      2.00000
    146      -2.2819      2.00000
    147      -2.2814      2.00000
    148      -2.2456      2.00000
    149      -2.2420      2.00000
    150      -2.2247      2.00000
    151      -2.1960      2.00000
    152      -2.1622      2.00000
    153      -2.1571      2.00000
    154      -2.1454      2.00000
    155      -2.1395      2.00000
    156      -2.1388      2.00000
    157      -2.1366      2.00000
    158      -2.1336      2.00000
    159      -2.1155      2.00000
    160      -2.1128      2.00000
    161      -2.1109      2.00000
    162      -2.1098      2.00000
    163      -2.0983      2.00000
    164      -2.0969      2.00000
    165      -2.0944      2.00000
    166      -2.0936      2.00000
    167      -2.0245      2.00000
    168      -2.0127      2.00000
    169      -2.0049      2.00000
    170      -1.9882      2.00000
    171      -1.9873      2.00000
    172      -1.9817      2.00000
    173      -1.9725      2.00000
    174      -1.9599      2.00000
    175      -1.9596      2.00000
    176      -1.9445      2.00000
    177      -1.9439      2.00000
    178      -1.9206      2.00000
    179      -1.9182      2.00000
    180      -1.9161      2.00000
    181      -1.9124      2.00000
    182      -1.9030      2.00000
    183      -1.9018      2.00000
    184      -1.8914      2.00000
    185      -1.8830      2.00000
    186      -1.8362      2.00000
    187      -1.6570      2.00000
    188      -1.5602      2.00000
    189      -1.5359      2.00000
    190      -1.2858      2.00000
    191      -1.2843      2.00000
    192      -0.9516      1.99798
    193      -0.9492      1.99789
    194      -0.8045      1.99026
    195      -0.6209      2.09748
    196      -0.6201      2.09793
    197      -0.4746      1.63501
    198      -0.4698      1.59469
    199       0.0905      0.00415
    200       0.3021      0.00003
    201       0.3067      0.00003
    202       0.4910      0.00000
    203       0.4927      0.00000
    204       0.5832      0.00000
    205       0.5874      0.00000
    206       0.7609      0.00000
    207       0.7713      0.00000
    208       0.9939      0.00000
    209       0.9973      0.00000
    210       1.4130      0.00000
    211       1.5646      0.00000
    212       1.5758      0.00000
    213       1.6352      0.00000
    214       1.8395      0.00000
    215       2.3788      0.00000
    216       2.6810      0.00000
    217       2.6868      0.00000
    218       2.8166      0.00000
    219       2.8247      0.00000
    220       3.1605      0.00000
    221       3.1626      0.00000
    222       3.1741      0.00000
    223       3.4436      0.00000
    224       3.5265      0.00000
    225       3.6084      0.00000
    226       3.6096      0.00000
    227       3.8242      0.00000
    228       3.8259      0.00000
    229       4.2065      0.00000
    230       4.2140      0.00000
    231       4.4051      0.00000
    232       4.4747      0.00000
    233       4.6139      0.00000
    234       5.1022      0.00000
    235       5.1038      0.00000
    236       5.2359      0.00000
    237       5.2382      0.00000
    238       5.4764      0.00000
    239       5.5441      0.00000
    240       5.5506      0.00000

 k-point     7 :      -0.3750    0.3750    0.0000
  band No.  band energies     occupation 
      1      -8.1761      2.00000
      2      -7.5620      2.00000
      3      -7.5565      2.00000
      4      -6.9719      2.00000
      5      -6.6783      2.00000
      6      -6.1444      2.00000
      7      -6.1336      2.00000
      8      -5.6345      2.00000
      9      -5.0482      2.00000
     10      -5.0410      2.00000
     11      -4.9063      2.00000
     12      -4.8654      2.00000
     13      -4.8562      2.00000
     14      -4.8120      2.00000
     15      -4.7837      2.00000
     16      -4.7812      2.00000
     17      -4.7561      2.00000
     18      -4.6046      2.00000
     19      -4.5890      2.00000
     20      -4.5836      2.00000
     21      -4.5664      2.00000
     22      -4.5630      2.00000
     23      -4.4418      2.00000
     24      -4.4393      2.00000
     25      -4.4093      2.00000
     26      -4.4021      2.00000
     27      -4.3719      2.00000
     28      -4.3659      2.00000
     29      -4.3556      2.00000
     30      -4.3523      2.00000
     31      -4.2838      2.00000
     32      -4.2630      2.00000
     33      -4.2594      2.00000
     34      -4.2548      2.00000
     35      -4.2093      2.00000
     36      -4.2045      2.00000
     37      -4.1845      2.00000
     38      -4.1255      2.00000
     39      -4.1246      2.00000
     40      -4.1172      2.00000
     41      -4.0740      2.00000
     42      -3.9489      2.00000
     43      -3.9106      2.00000
     44      -3.8719      2.00000
     45      -3.8690      2.00000
     46      -3.8084      2.00000
     47      -3.7977      2.00000
     48      -3.7828      2.00000
     49      -3.7765      2.00000
     50      -3.7708      2.00000
     51      -3.7542      2.00000
     52      -3.7492      2.00000
     53      -3.7146      2.00000
     54      -3.7057      2.00000
     55      -3.6752      2.00000
     56      -3.5893      2.00000
     57      -3.5805      2.00000
     58      -3.5725      2.00000
     59      -3.5655      2.00000
     60      -3.5281      2.00000
     61      -3.5205      2.00000
     62      -3.4839      2.00000
     63      -3.4814      2.00000
     64      -3.4460      2.00000
     65      -3.4351      2.00000
     66      -3.4183      2.00000
     67      -3.4093      2.00000
     68      -3.3969      2.00000
     69      -3.3875      2.00000
     70      -3.3408      2.00000
     71      -3.3310      2.00000
     72      -3.3100      2.00000
     73      -3.3062      2.00000
     74      -3.2966      2.00000
     75      -3.2868      2.00000
     76      -3.2519      2.00000
     77      -3.2176      2.00000
     78      -3.2107      2.00000
     79      -3.2074      2.00000
     80      -3.2021      2.00000
     81      -3.1998      2.00000
     82      -3.1912      2.00000
     83      -3.1351      2.00000
     84      -3.1231      2.00000
     85      -3.1189      2.00000
     86      -3.1007      2.00000
     87      -3.0805      2.00000
     88      -3.0780      2.00000
     89      -3.0508      2.00000
     90      -3.0470      2.00000
     91      -3.0233      2.00000
     92      -3.0177      2.00000
     93      -3.0143      2.00000
     94      -2.9766      2.00000
     95      -2.9728      2.00000
     96      -2.9220      2.00000
     97      -2.9133      2.00000
     98      -2.9092      2.00000
     99      -2.8914      2.00000
    100      -2.8746      2.00000
    101      -2.8685      2.00000
    102      -2.8349      2.00000
    103      -2.8189      2.00000
    104      -2.8087      2.00000
    105      -2.8051      2.00000
    106      -2.8031      2.00000
    107      -2.7953      2.00000
    108      -2.7936      2.00000
    109      -2.7848      2.00000
    110      -2.7726      2.00000
    111      -2.7226      2.00000
    112      -2.7197      2.00000
    113      -2.7168      2.00000
    114      -2.7098      2.00000
    115      -2.6939      2.00000
    116      -2.6857      2.00000
    117      -2.6700      2.00000
    118      -2.6669      2.00000
    119      -2.6607      2.00000
    120      -2.6583      2.00000
    121      -2.6532      2.00000
    122      -2.6487      2.00000
    123      -2.6428      2.00000
    124      -2.6299      2.00000
    125      -2.6270      2.00000
    126      -2.6259      2.00000
    127      -2.5948      2.00000
    128      -2.5699      2.00000
    129      -2.5685      2.00000
    130      -2.5464      2.00000
    131      -2.4873      2.00000
    132      -2.4824      2.00000
    133      -2.4354      2.00000
    134      -2.4325      2.00000
    135      -2.3860      2.00000
    136      -2.3846      2.00000
    137      -2.3836      2.00000
    138      -2.3517      2.00000
    139      -2.3300      2.00000
    140      -2.3274      2.00000
    141      -2.3248      2.00000
    142      -2.3209      2.00000
    143      -2.3138      2.00000
    144      -2.3110      2.00000
    145      -2.3048      2.00000
    146      -2.2818      2.00000
    147      -2.2813      2.00000
    148      -2.2454      2.00000
    149      -2.2420      2.00000
    150      -2.2247      2.00000
    151      -2.1960      2.00000
    152      -2.1623      2.00000
    153      -2.1569      2.00000
    154      -2.1458      2.00000
    155      -2.1397      2.00000
    156      -2.1389      2.00000
    157      -2.1363      2.00000
    158      -2.1334      2.00000
    159      -2.1154      2.00000
    160      -2.1131      2.00000
    161      -2.1106      2.00000
    162      -2.1096      2.00000
    163      -2.0982      2.00000
    164      -2.0967      2.00000
    165      -2.0948      2.00000
    166      -2.0934      2.00000
    167      -2.0245      2.00000
    168      -2.0128      2.00000
    169      -2.0051      2.00000
    170      -1.9884      2.00000
    171      -1.9872      2.00000
    172      -1.9817      2.00000
    173      -1.9727      2.00000
    174      -1.9599      2.00000
    175      -1.9594      2.00000
    176      -1.9445      2.00000
    177      -1.9439      2.00000
    178      -1.9207      2.00000
    179      -1.9187      2.00000
    180      -1.9155      2.00000
    181      -1.9121      2.00000
    182      -1.9032      2.00000
    183      -1.9016      2.00000
    184      -1.8915      2.00000
    185      -1.8830      2.00000
    186      -1.8362      2.00000
    187      -1.6570      2.00000
    188      -1.5602      2.00000
    189      -1.5359      2.00000
    190      -1.2857      2.00000
    191      -1.2843      2.00000
    192      -0.9512      1.99796
    193      -0.9497      1.99790
    194      -0.8046      1.99026
    195      -0.6210      2.09743
    196      -0.6200      2.09798
    197      -0.4755      1.64233
    198      -0.4686      1.58492
    199       0.0905      0.00415
    200       0.3020      0.00003
    201       0.3067      0.00003
    202       0.4910      0.00000
    203       0.4927      0.00000
    204       0.5831      0.00000
    205       0.5873      0.00000
    206       0.7612      0.00000
    207       0.7710      0.00000
    208       0.9943      0.00000
    209       0.9969      0.00000
    210       1.4130      0.00000
    211       1.5668      0.00000
    212       1.5755      0.00000
    213       1.6333      0.00000
    214       1.8395      0.00000
    215       2.3791      0.00000
    216       2.6799      0.00000
    217       2.6880      0.00000
    218       2.8157      0.00000
    219       2.8256      0.00000
    220       3.1608      0.00000
    221       3.1627      0.00000
    222       3.1741      0.00000
    223       3.4436      0.00000
    224       3.5250      0.00000
    225       3.6076      0.00000
    226       3.6110      0.00000
    227       3.8242      0.00000
    228       3.8259      0.00000
    229       4.2061      0.00000
    230       4.2146      0.00000
    231       4.4054      0.00000
    232       4.4751      0.00000
    233       4.6181      0.00000
    234       5.1022      0.00000
    235       5.1037      0.00000
    236       5.2362      0.00000
    237       5.2387      0.00000
    238       5.5430      0.00000
    239       5.5488      0.00000
    240       5.9976      0.00000

 k-point     8 :      -0.1250    0.3750    0.0000
  band No.  band energies     occupation 
      1      -8.4962      2.00000
      2      -7.8681      2.00000
      3      -6.9733      2.00000
      4      -6.7091      2.00000
      5      -6.4204      2.00000
      6      -6.1882      2.00000
      7      -5.7699      2.00000
      8      -5.5028      2.00000
      9      -5.3785      2.00000
     10      -5.2353      2.00000
     11      -5.1405      2.00000
     12      -5.0700      2.00000
     13      -5.0416      2.00000
     14      -5.0331      2.00000
     15      -4.7906      2.00000
     16      -4.7621      2.00000
     17      -4.7560      2.00000
     18      -4.7016      2.00000
     19      -4.6925      2.00000
     20      -4.6520      2.00000
     21      -4.5422      2.00000
     22      -4.4915      2.00000
     23      -4.4815      2.00000
     24      -4.4457      2.00000
     25      -4.4145      2.00000
     26      -4.3773      2.00000
     27      -4.3671      2.00000
     28      -4.3583      2.00000
     29      -4.3452      2.00000
     30      -4.3169      2.00000
     31      -4.2981      2.00000
     32      -4.2921      2.00000
     33      -4.2014      2.00000
     34      -4.1958      2.00000
     35      -4.1190      2.00000
     36      -4.1078      2.00000
     37      -4.0838      2.00000
     38      -4.0749      2.00000
     39      -4.0140      2.00000
     40      -4.0104      2.00000
     41      -3.9941      2.00000
     42      -3.9667      2.00000
     43      -3.9569      2.00000
     44      -3.8915      2.00000
     45      -3.8878      2.00000
     46      -3.8761      2.00000
     47      -3.8231      2.00000
     48      -3.7844      2.00000
     49      -3.7805      2.00000
     50      -3.7625      2.00000
     51      -3.7555      2.00000
     52      -3.6953      2.00000
     53      -3.6528      2.00000
     54      -3.6440      2.00000
     55      -3.6290      2.00000
     56      -3.6053      2.00000
     57      -3.5977      2.00000
     58      -3.5848      2.00000
     59      -3.5375      2.00000
     60      -3.5327      2.00000
     61      -3.5155      2.00000
     62      -3.5111      2.00000
     63      -3.4985      2.00000
     64      -3.4904      2.00000
     65      -3.4801      2.00000
     66      -3.4723      2.00000
     67      -3.4564      2.00000
     68      -3.3823      2.00000
     69      -3.3430      2.00000
     70      -3.3123      2.00000
     71      -3.3041      2.00000
     72      -3.2987      2.00000
     73      -3.2792      2.00000
     74      -3.2665      2.00000
     75      -3.2191      2.00000
     76      -3.1975      2.00000
     77      -3.1735      2.00000
     78      -3.1685      2.00000
     79      -3.1589      2.00000
     80      -3.1556      2.00000
     81      -3.1484      2.00000
     82      -3.1445      2.00000
     83      -3.1355      2.00000
     84      -3.1338      2.00000
     85      -3.1167      2.00000
     86      -3.1035      2.00000
     87      -3.0895      2.00000
     88      -3.0856      2.00000
     89      -3.0646      2.00000
     90      -3.0555      2.00000
     91      -3.0521      2.00000
     92      -3.0297      2.00000
     93      -3.0233      2.00000
     94      -2.9892      2.00000
     95      -2.9817      2.00000
     96      -2.9551      2.00000
     97      -2.9289      2.00000
     98      -2.9257      2.00000
     99      -2.8675      2.00000
    100      -2.8532      2.00000
    101      -2.8201      2.00000
    102      -2.8146      2.00000
    103      -2.8044      2.00000
    104      -2.7983      2.00000
    105      -2.7927      2.00000
    106      -2.7884      2.00000
    107      -2.7715      2.00000
    108      -2.7665      2.00000
    109      -2.7552      2.00000
    110      -2.7369      2.00000
    111      -2.7267      2.00000
    112      -2.7123      2.00000
    113      -2.6812      2.00000
    114      -2.6663      2.00000
    115      -2.6635      2.00000
    116      -2.6559      2.00000
    117      -2.6533      2.00000
    118      -2.6459      2.00000
    119      -2.6211      2.00000
    120      -2.6148      2.00000
    121      -2.6007      2.00000
    122      -2.5828      2.00000
    123      -2.5731      2.00000
    124      -2.5666      2.00000
    125      -2.5609      2.00000
    126      -2.4994      2.00000
    127      -2.4700      2.00000
    128      -2.4533      2.00000
    129      -2.4443      2.00000
    130      -2.4411      2.00000
    131      -2.4289      2.00000
    132      -2.4189      2.00000
    133      -2.3996      2.00000
    134      -2.3896      2.00000
    135      -2.3808      2.00000
    136      -2.3763      2.00000
    137      -2.3696      2.00000
    138      -2.3661      2.00000
    139      -2.3483      2.00000
    140      -2.3394      2.00000
    141      -2.3358      2.00000
    142      -2.3335      2.00000
    143      -2.3188      2.00000
    144      -2.3178      2.00000
    145      -2.2963      2.00000
    146      -2.2937      2.00000
    147      -2.2757      2.00000
    148      -2.2667      2.00000
    149      -2.2389      2.00000
    150      -2.2324      2.00000
    151      -2.2274      2.00000
    152      -2.1937      2.00000
    153      -2.1776      2.00000
    154      -2.1704      2.00000
    155      -2.1617      2.00000
    156      -2.1595      2.00000
    157      -2.1239      2.00000
    158      -2.1178      2.00000
    159      -2.0965      2.00000
    160      -2.0951      2.00000
    161      -2.0937      2.00000
    162      -2.0849      2.00000
    163      -2.0793      2.00000
    164      -2.0752      2.00000
    165      -2.0712      2.00000
    166      -2.0578      2.00000
    167      -2.0396      2.00000
    168      -2.0362      2.00000
    169      -2.0343      2.00000
    170      -2.0324      2.00000
    171      -2.0223      2.00000
    172      -2.0100      2.00000
    173      -2.0078      2.00000
    174      -2.0039      2.00000
    175      -1.9894      2.00000
    176      -1.9691      2.00000
    177      -1.9509      2.00000
    178      -1.9399      2.00000
    179      -1.9297      2.00000
    180      -1.9259      2.00000
    181      -1.9162      2.00000
    182      -1.8855      2.00000
    183      -1.8743      2.00000
    184      -1.8718      2.00000
    185      -1.8564      2.00000
    186      -1.8329      2.00000
    187      -1.7821      2.00000
    188      -1.7433      2.00000
    189      -1.7198      2.00000
    190      -1.6590      2.00000
    191      -1.6187      2.00000
    192      -1.5528      2.00000
    193      -1.4832      2.00000
    194      -1.1306      1.99998
    195      -1.0407      1.99972
    196      -0.9063      1.99565
    197      -0.7343      2.00664
    198      -0.3121      0.13767
    199      -0.1289     -0.03742
    200      -0.1152     -0.02615
    201      -0.0400      0.00749
    202       0.0610      0.00621
    203       0.2028      0.00045
    204       0.4023      0.00000
    205       0.6368      0.00000
    206       0.8350      0.00000
    207       1.2117      0.00000
    208       1.3518      0.00000
    209       1.6228      0.00000
    210       1.6403      0.00000
    211       2.1244      0.00000
    212       2.2208      0.00000
    213       2.2711      0.00000
    214       2.3032      0.00000
    215       2.3230      0.00000
    216       2.6522      0.00000
    217       2.7693      0.00000
    218       2.8484      0.00000
    219       2.8536      0.00000
    220       3.3033      0.00000
    221       3.3113      0.00000
    222       3.4993      0.00000
    223       3.7127      0.00000
    224       3.7424      0.00000
    225       3.7693      0.00000
    226       3.9559      0.00000
    227       4.0364      0.00000
    228       4.3038      0.00000
    229       4.4743      0.00000
    230       4.5786      0.00000
    231       4.6010      0.00000
    232       4.7829      0.00000
    233       4.8906      0.00000
    234       4.9351      0.00000
    235       5.0793      0.00000
    236       5.1242      0.00000
    237       5.1534      0.00000
    238       5.3382      0.00000
    239       5.4319      0.00000
    240       5.6462      0.00000


--------------------------------------------------------------------------------------------------------


 soft charge-density along one line, spin component           1
         0         1         2         3         4         5         6         7         8         9
 total charge-density along one line
 
 pseudopotential strength for first ion, spin component:           1
 -8.377  -0.000   0.000  -0.000   0.000  -0.586   0.000  -0.000
 -0.000  -8.370  -0.000  -0.000   0.000   0.000  -0.594   0.000
  0.000  -0.000  -8.356  -0.000  -0.000  -0.000   0.000  -0.606
 -0.000  -0.000  -0.000  -8.370  -0.000   0.000   0.000   0.000
  0.000   0.000  -0.000  -0.000  -8.397  -0.000  -0.000   0.000
 -0.586   0.000  -0.000   0.000  -0.000   7.419  -0.000   0.000
  0.000  -0.594   0.000   0.000  -0.000  -0.000   7.425  -0.000
 -0.000   0.000  -0.606   0.000   0.000   0.000  -0.000   7.434
  0.000   0.000   0.000  -0.594   0.000  -0.000  -0.000  -0.000
 -0.000  -0.000   0.000   0.000  -0.572   0.000   0.000  -0.000
  0.000   0.000  -0.006   0.000   0.000  -0.000  -0.000   0.003
  0.000   0.000  -0.011   0.000   0.000  -0.000  -0.000   0.005
 -0.000  -0.014   0.000   0.000   0.000   0.000   0.011  -0.000
  0.000  -0.000  -0.016  -0.000   0.000  -0.000   0.000   0.011
 -0.000   0.000   0.000  -0.014  -0.000   0.000  -0.000  -0.000
 -0.000  -0.016   0.000   0.000   0.000  -0.000   0.013  -0.000
  0.000  -0.000  -0.017  -0.000   0.000  -0.000   0.000   0.012
 -0.000   0.000   0.000  -0.016  -0.000  -0.000  -0.000  -0.000
 total augmentation occupancy for first ion, spin component:           1
  1.924  -0.000   0.000  -0.000   0.000  -0.035   0.000  -0.000   0.000  -0.000  -0.000  -0.000   0.000   0.000   0.000  -0.000
 -0.000   1.924   0.000  -0.000  -0.000   0.000  -0.026   0.000   0.000  -0.000   0.000   0.000   0.032   0.000   0.000  -0.018
  0.000   0.000   1.939  -0.000  -0.000  -0.000  -0.000  -0.037   0.000   0.000  -0.000   0.013   0.000   0.047  -0.000   0.000
 -0.000  -0.000  -0.000   1.924   0.000   0.000   0.000   0.000  -0.026   0.000   0.000   0.000   0.000   0.000   0.032  -0.000
  0.000  -0.000  -0.000   0.000   1.908  -0.000  -0.000   0.000   0.000  -0.008  -0.000  -0.000  -0.000   0.000   0.000   0.000
 -0.035   0.000  -0.000   0.000  -0.000   0.011  -0.000   0.000  -0.000   0.000   0.000   0.000  -0.000  -0.000  -0.000   0.000
  0.000  -0.026  -0.000   0.000  -0.000  -0.000   0.009  -0.000  -0.000   0.000   0.000  -0.000   0.021  -0.000  -0.000  -0.001
 -0.000   0.000  -0.037   0.000   0.000   0.000  -0.000   0.011  -0.000  -0.000  -0.031   0.001  -0.000   0.017   0.000  -0.000
  0.000   0.000   0.000  -0.026   0.000  -0.000  -0.000  -0.000   0.009  -0.000   0.000   0.000  -0.000  -0.000   0.022   0.000
 -0.000  -0.000   0.000   0.000  -0.008   0.000   0.000  -0.000  -0.000   0.012   0.000   0.000   0.000   0.000   0.000  -0.000
 -0.000   0.000  -0.000   0.000  -0.000   0.000   0.000  -0.031   0.000   0.000   1.591  -0.118   0.000   0.164   0.000  -0.000
 -0.000   0.000   0.013   0.000  -0.000   0.000  -0.000   0.001   0.000   0.000  -0.118   0.014   0.000  -0.023   0.000   0.000
  0.000   0.032   0.000   0.000  -0.000  -0.000   0.021  -0.000  -0.000   0.000   0.000   0.000   0.177  -0.000  -0.000  -0.010
  0.000   0.000   0.047   0.000   0.000  -0.000  -0.000   0.017  -0.000   0.000   0.164  -0.023  -0.000   0.105  -0.000   0.000
  0.000   0.000  -0.000   0.032   0.000  -0.000  -0.000   0.000   0.022   0.000   0.000   0.000  -0.000  -0.000   0.177   0.000
 -0.000  -0.018   0.000  -0.000   0.000   0.000  -0.001  -0.000   0.000  -0.000  -0.000   0.000  -0.010   0.000   0.000   0.001
  0.000  -0.000  -0.021  -0.000  -0.000   0.000   0.000  -0.000   0.000   0.000  -0.023   0.002   0.000  -0.008   0.000   0.000
 -0.000   0.000   0.000  -0.018  -0.000   0.000   0.000  -0.000  -0.001   0.000  -0.000   0.000   0.000  -0.000  -0.010  -0.000


------------------------ aborting loop because EDIFF is reached ----------------------------------------


    CHARGE:  cpu time    0.7984: real time    0.8037
    FORLOC:  cpu time    0.0176: real time    0.0177
    FORNL :  cpu time    2.7071: real time    2.7259
    STRESS:  cpu time    7.9106: real time    7.9683
    FORCOR:  cpu time    0.0915: real time    0.0921
    FORHAR:  cpu time    0.0347: real time    0.0349
    MIXING:  cpu time    0.0091: real time    0.0091
    OFIELD:  cpu time    0.0001: real time    0.0001

  FORCE on cell =-STRESS in cart. coord.  units (eV):
  Direction    XX          YY          ZZ          XY          YZ          ZX
  --------------------------------------------------------------------------------------
  Alpha Z   718.07260   718.07260   718.07260
  Ewald  189880.85828189876.92834************    -0.40328    -3.39754    -2.43625
  Hartree202920.46907202917.35314************    -0.21058    -1.81297    -1.41285
  E(xc)   -2312.64308 -2312.64654 -2319.77677    -0.00050    -0.00452    -0.00322
  Local  ************************405535.64250     0.59899     5.11267     3.78771
  n-local  -798.03172  -798.02984  -809.02248    -0.00600    -0.05231    -0.02459
  augment  3399.94312  3399.94665  3411.05525     0.00557     0.04696     0.02685
  Kinetic  3206.32460  3206.33516  3224.38722     0.00337     0.02737     0.02413
  Fock        0.00000     0.00000     0.00000     0.00000     0.00000     0.00000
  -------------------------------------------------------------------------------------
  Total      -3.77231    -3.74490    -3.58827    -0.01242    -0.08034    -0.03822
  in kB      -4.57898    -4.54571    -4.35559    -0.01508    -0.09753    -0.04640
  external pressure =       -4.49 kB  Pullay stress =        0.00 kB


 VOLUME and BASIS-vectors are now :
 -----------------------------------------------------------------------------
  energy-cutoff  :      544.00
  volume of cell :     1319.92
      direct lattice vectors                 reciprocal lattice vectors
     7.700375000  0.000000000  0.000000000     0.129863805  0.000000000  0.000000000
     0.000000000  7.700375000  0.000000000     0.000000000  0.129863805  0.000000000
     0.000000000  0.000000000 22.259998000     0.000000000  0.000000000  0.044923634

  length of vectors
     7.700375000  7.700375000 22.259998000     0.129863805  0.129863805  0.044923634


 FORCES acting on ions
    electron-ion (+dipol)            ewald-force                    non-local-force                 convergence-correction
 -----------------------------------------------------------------------------------------------
   0.165E+01 0.278E+01 0.327E+04   -.163E+01 -.275E+01 -.327E+04   -.225E-01 -.341E-01 -.415E+01   0.587E-04 -.325E-04 -.729E-02
   -.168E+01 0.331E+01 0.327E+04   0.166E+01 -.327E+01 -.327E+04   0.174E-01 -.335E-01 -.416E+01   -.747E-04 -.897E-04 -.735E-02
   0.318E-01 0.283E+01 0.327E+04   -.355E-01 -.280E+01 -.326E+04   0.299E-02 -.257E-01 -.418E+01   0.135E-04 0.987E-04 -.732E-02
   0.221E+01 0.256E-01 0.328E+04   -.220E+01 -.257E-01 -.327E+04   -.891E-02 0.876E-04 -.409E+01   -.990E-04 -.186E-04 -.742E-02
   -.175E+01 0.111E-01 0.328E+04   0.175E+01 -.117E-01 -.327E+04   0.138E-02 0.601E-03 -.405E+01   0.101E-03 0.496E-04 -.746E-02
   -.475E+00 0.382E-01 0.327E+04   0.465E+00 -.378E-01 -.327E+04   0.960E-02 -.344E-03 -.414E+01   -.360E-05 0.168E-04 -.746E-02
   0.163E+01 -.281E+01 0.327E+04   -.160E+01 0.277E+01 -.327E+04   -.210E-01 0.351E-01 -.414E+01   0.752E-04 0.570E-04 -.729E-02
   -.168E+01 -.332E+01 0.327E+04   0.166E+01 0.328E+01 -.327E+04   0.178E-01 0.343E-01 -.416E+01   -.243E-04 0.370E-04 -.739E-02
   0.482E-01 -.285E+01 0.327E+04   -.526E-01 0.283E+01 -.326E+04   0.368E-02 0.243E-01 -.418E+01   -.515E-04 -.118E-03 -.730E-02
   0.979E+01 -.654E+00 0.109E+04   -.977E+01 0.647E+00 -.109E+04   -.554E-01 0.140E-01 -.161E+00   0.532E-04 -.155E-04 -.161E-01
   -.259E+01 -.241E+00 0.110E+04   0.257E+01 0.238E+00 -.110E+04   0.330E-01 0.505E-02 -.240E+00   -.556E-04 0.127E-04 -.163E-01
   -.754E+01 -.380E+00 0.109E+04   0.754E+01 0.375E+00 -.109E+04   0.342E-01 0.977E-02 -.130E+00   0.338E-05 -.521E-04 -.162E-01
   0.842E+01 0.117E+02 0.110E+04   -.842E+01 -.117E+02 -.110E+04   -.410E-01 -.214E-01 -.396E+00   0.454E-05 -.134E-07 -.162E-01
   0.246E+01 0.183E+02 0.111E+04   -.247E+01 -.183E+02 -.111E+04   -.882E-02 -.958E-01 -.605E+00   -.280E-04 -.856E-04 -.162E-01
   -.106E+02 0.160E+02 0.111E+04   0.106E+02 -.160E+02 -.110E+04   0.428E-01 -.533E-01 -.497E+00   0.266E-04 0.763E-04 -.162E-01
   0.844E+01 -.116E+02 0.110E+04   -.843E+01 0.117E+02 -.110E+04   -.456E-01 0.286E-01 -.393E+00   -.686E-04 0.154E-04 -.162E-01
   0.251E+01 -.181E+02 0.111E+04   -.252E+01 0.181E+02 -.111E+04   -.131E-01 0.930E-01 -.606E+00   0.132E-04 0.725E-04 -.162E-01
   -.103E+02 -.161E+02 0.111E+04   0.103E+02 0.161E+02 -.110E+04   0.392E-01 0.616E-01 -.486E+00   0.515E-04 -.245E-04 -.162E-01
   0.210E+01 -.261E+01 -.112E+04   -.212E+01 0.259E+01 0.111E+04   0.259E-01 0.626E-01 0.420E+00   -.289E-04 -.677E-04 -.165E-01
   -.640E+01 0.121E+01 -.112E+04   0.641E+01 -.124E+01 0.112E+04   0.154E-01 0.870E-02 0.423E+00   -.694E-04 0.659E-04 -.164E-01
   0.399E+01 0.746E+01 -.114E+04   -.399E+01 -.742E+01 0.114E+04   -.328E-01 -.137E+00 0.140E+00   0.102E-03 -.687E-04 -.164E-01
   0.452E+01 -.521E+00 -.108E+04   -.451E+01 0.523E+00 0.108E+04   -.648E-01 0.374E-02 0.123E+01   0.246E-04 0.212E-05 -.164E-01
   -.809E+01 -.265E+00 -.107E+04   0.807E+01 0.270E+00 0.106E+04   0.108E+00 -.104E-02 0.163E+01   0.572E-05 -.260E-04 -.164E-01
   0.183E+01 0.598E+00 -.111E+04   -.180E+01 -.596E+00 0.111E+04   -.312E-02 -.441E-02 0.795E+00   -.316E-04 0.362E-04 -.164E-01
   0.204E+01 0.322E+01 -.111E+04   -.207E+01 -.319E+01 0.111E+04   0.230E-01 -.733E-01 0.439E+00   -.930E-04 0.604E-04 -.164E-01
   -.609E+01 -.996E+00 -.112E+04   0.610E+01 0.102E+01 0.112E+04   0.163E-01 -.111E-01 0.416E+00   -.382E-04 -.410E-04 -.164E-01
   0.391E+01 -.783E+01 -.114E+04   -.390E+01 0.778E+01 0.114E+04   -.401E-01 0.128E+00 0.138E+00   0.134E-03 0.348E-04 -.164E-01
   0.276E+01 0.156E+01 -.325E+04   -.275E+01 -.154E+01 0.324E+04   -.245E-01 -.285E-01 0.388E+01   0.116E-04 -.580E-04 -.786E-02
   0.216E+01 0.104E+01 -.324E+04   -.214E+01 -.103E+01 0.323E+04   -.173E-01 -.690E-02 0.372E+01   -.381E-04 0.982E-05 -.803E-02
   -.452E+01 0.719E+00 -.324E+04   0.448E+01 -.715E+00 0.324E+04   0.402E-01 -.779E-02 0.381E+01   0.165E-04 0.416E-04 -.789E-02
   0.118E+01 0.304E+01 -.326E+04   -.114E+01 -.294E+01 0.326E+04   -.485E-01 -.109E+00 0.358E+01   -.861E-04 -.260E-04 -.812E-02
   0.600E+01 0.102E+01 -.328E+04   -.590E+01 -.916E+00 0.327E+04   -.135E+00 -.927E-01 0.335E+01   0.344E-04 -.810E-04 -.816E-02
   -.650E+01 0.198E+01 -.328E+04   0.637E+01 -.191E+01 0.328E+04   0.170E+00 -.670E-01 0.352E+01   0.549E-04 -.332E-04 -.796E-02
   -.654E+00 -.431E+01 -.326E+04   0.673E+00 0.419E+01 0.325E+04   -.152E-01 0.138E+00 0.357E+01   -.343E-04 0.890E-04 -.811E-02
   0.556E+01 -.190E+01 -.328E+04   -.547E+01 0.181E+01 0.328E+04   -.122E+00 0.828E-01 0.337E+01   -.545E-04 0.727E-04 -.810E-02
   -.436E+01 -.232E+01 -.328E+04   0.428E+01 0.224E+01 0.327E+04   0.107E+00 0.728E-01 0.351E+01   0.870E-04 -.161E-04 -.804E-02
 -----------------------------------------------------------------------------------------------
   0.172E-01 0.547E-02 0.327E+01   -.213E-13 -.358E-12 0.455E-11   -.114E-01 0.893E-03 -.284E+01   -.760E-05 -.548E-05 -.432E+00
 
 
 POSITION                                       TOTAL-FORCE (eV/Angst)
 -----------------------------------------------------------------------------------
      1.28340      1.28340      0.00000         0.000822      0.000854      0.012004
      3.85020      1.28340      0.00000        -0.000342     -0.000373      0.011084
      6.41699      1.28340      0.00000        -0.000783      0.000569      0.016458
      1.28340      3.85020      0.00000        -0.001630     -0.000273     -0.000088
      3.85020      3.85020      0.00000         0.001156     -0.000202     -0.007239
      6.41699      3.85020      0.00000        -0.000098     -0.000100      0.004851
      1.28340      6.41699      0.00000         0.000572     -0.001071      0.011583
      3.85020      6.41699      0.00000        -0.000143      0.000056      0.011243
      6.41699      6.41699      0.00000        -0.000935     -0.000548      0.017000
      0.00000      0.00000      1.81500        -0.036612      0.006486      0.092214
      2.56680      0.00000      1.81500         0.013950      0.001666      0.048423
      5.13360      0.00000      1.81500         0.030030      0.004350      0.110059
      0.00000      2.56680      1.81500        -0.037265     -0.045517     -0.004668
      2.56680      2.56680      1.81500        -0.019294     -0.098915     -0.101283
      5.13360      2.56680      1.81500         0.049807     -0.069929     -0.032226
      0.00000      5.13360      1.81500        -0.039510      0.051592     -0.005741
      2.56680      5.13360      1.81500        -0.021730      0.096971     -0.101120
      5.13360      5.13360      1.81500         0.045284      0.075941     -0.031550
      1.28975      1.29021      3.70252         0.004328      0.033378      0.059735
      3.85197      1.29787      3.70839         0.022483     -0.014804      0.050280
      6.42079      1.31262      3.73355        -0.027058     -0.090506     -0.077438
      1.29175      3.85003      3.64159        -0.055246      0.005146      0.446369
      3.83593      3.84940      3.61478         0.081622      0.003546      0.618466
      6.40443      3.85485      3.68585         0.019145     -0.002803      0.236082
      1.28586      6.41206      3.70075         0.002001     -0.036169      0.071159
      3.84707      6.40234      3.70801         0.028346      0.016514      0.051239
      6.41759      6.40105      3.73111        -0.030003      0.080101     -0.077238
      0.01020      0.00861      5.51468        -0.011591     -0.013297      0.022576
      2.57158      7.69627      5.51101         0.002012      0.000507      0.034455
      5.13285      0.00689      5.51822         0.000003     -0.004114      0.014313
      0.01886      2.58861      5.55782        -0.015518     -0.008201     -0.162805
      2.58306      2.57366      5.59929        -0.038820      0.011451     -0.309944
      5.12447      2.58637      5.60244         0.040009      0.005160     -0.291541
      0.00347      5.12458      5.55327         0.003639      0.012810     -0.154275
      2.56947      5.11725      5.60011        -0.030493     -0.009892     -0.319374
      5.11641      5.12834      5.59375         0.021863     -0.010384     -0.263062
 -----------------------------------------------------------------------------------
    total drift:                                0.005795      0.006359      0.003938


--------------------------------------------------------------------------------------------------------



  FREE ENERGIE OF THE ION-ELECTRON SYSTEM (eV)
  ---------------------------------------------------
  free  energy   TOTEN  =      -108.17468536 eV

  energy  without entropy=     -108.16705944  energy(sigma->0) =     -108.17277888
 


--------------------------------------------------------------------------------------------------------


    POTLOK:  cpu time    0.0971: real time    0.0977


--------------------------------------------------------------------------------------------------------


 stress matrix after NEB project (eV)
     -3.77231     -0.01242     -0.03822
     -0.01242     -3.74490     -0.08034
     -0.03822     -0.08034     -3.58827
  FORCES: max atom, RMS     0.623839    0.175120
  FORCE total and by dimension    1.050719    0.618466
  Stress total and by dimension    6.414546    3.772308
     LOOP+:  cpu time  456.9196: real time  459.9867
 vacuum level on the upper side and lower side of the slab         1.360         6.487
    4ORBIT:  cpu time    0.0000: real time    0.0000

 total amount of memory used by VASP MPI-rank0   144874. kBytes
=======================================================================

   base      :      30000. kBytes
   nonlr-proj:      14881. kBytes
   fftplans  :       6175. kBytes
   grid      :      18948. kBytes
   one-center:        559. kBytes
   wavefun   :      74311. kBytes
 
  
  
 General timing and accounting informations for this job:
 ========================================================
  
                  Total CPU time used (sec):      465.581
                            User time (sec):      464.045
                          System time (sec):        1.535
                         Elapsed time (sec):      470.748
  
                   Maximum memory used (kb):      429776.
                   Average memory used (kb):           0.
  
                          Minor page faults:       280803
                          Major page faults:         1529
                 Voluntary context switches:         3813
