<?xml version="1.0" encoding="ISO-8859-1"?>
<modeling>
 <generator>
  <i name="program" type="string">vasp </i>
  <i name="version" type="string">5.4.4.18Apr17-6-g9f103f2a35  </i>
  <i name="subversion" type="string">(build Mar 06 2021 22:04:06) complex            parallel </i>
  <i name="platform" type="string">LinuxIFC </i>
  <i name="date" type="string">2024 03 06 </i>
  <i name="time" type="string">14:29:20 </i>
 </generator>
 <incar>
  <i type="string" name="PREC">normal</i>
  <i type="string" name="ALGO"> Very_Fast</i>
  <i type="int" name="ISPIN">     1</i>
  <i type="int" name="NELM">   400</i>
  <i type="int" name="IBRION">    -1</i>
  <i name="EDIFF">      0.00001000</i>
  <i name="EDIFFG">     -0.05000000</i>
  <i type="int" name="NSW">     0</i>
  <i type="int" name="ISIF">     2</i>
  <i type="int" name="ISYM">     0</i>
  <i name="SYMPREC">      0.00000000</i>
  <i name="ENCUT">    544.00000000</i>
  <i name="POTIM">      0.50000000</i>
  <i type="string" name="LREAL"> AUTO</i>
  <i type="int" name="ISMEAR">     2</i>
  <i name="SIGMA">      0.20000000</i>
  <i type="logical" name="LWAVE"> F  </i>
  <i type="logical" name="LCHARG"> F  </i>
  <i type="logical" name="LVTOT"> F  </i>
  <i type="logical" name="LVHAR"> T  </i>
  <v type="int" name="KPOINT_BSE">    -1     0     0     0</v>
  <i type="int" name="NELM">   400</i>
  <i type="string" name="GGA"> RP</i>
  <i type="int" name="VOSKOWN">     1</i>
  <i type="logical" name="LDIPOL"> T  </i>
  <i type="int" name="IDIPOL">     3</i>
  <i name="DIP%EFIELD">      0.40000000</i>
 </incar>
 <structure name="primitive_cell" >
  <crystal>
   <varray name="basis" >
    <v>       7.70037500       0.00000000       0.00000000 </v>
    <v>       0.00000000       7.70037500       0.00000000 </v>
    <v>       0.00000000       0.00000000      22.25999800 </v>
   </varray>
   <i name="volume">   1319.92383604 </i>
   <varray name="rec_basis" >
    <v>       0.12986381       0.00000000       0.00000000 </v>
    <v>       0.00000000       0.12986381       0.00000000 </v>
    <v>       0.00000000       0.00000000       0.04492363 </v>
   </varray>
  </crystal>
  <varray name="positions" >
   <v>       0.16666708       0.16666708       0.00000000 </v>
   <v>      -0.16666474       0.16666708       0.00000000 </v>
   <v>       0.16666708      -0.16666474       0.00000000 </v>
   <v>      -0.49999890       0.16666708       0.00000000 </v>
   <v>       0.16666708      -0.49999890       0.00000000 </v>
   <v>       0.00000000       0.00000000       0.08153640 </v>
   <v>       0.33333416       0.00000000       0.08153640 </v>
   <v>       0.00000000       0.33333416       0.08153640 </v>
   <v>       0.33333416       0.33333416       0.08153640 </v>
   <v>      -0.16666474      -0.16666474       0.00000000 </v>
   <v>      -0.49999890      -0.16666474       0.00000000 </v>
   <v>      -0.16666474      -0.49999890       0.00000000 </v>
   <v>      -0.49999890      -0.49999890       0.00000000 </v>
   <v>       0.16749132       0.16755171       0.16633056 </v>
   <v>      -0.33333182       0.00000000       0.08153640 </v>
   <v>       0.00000000      -0.33333182       0.08153640 </v>
   <v>      -0.33333182       0.33333416       0.08153640 </v>
   <v>       0.33333416      -0.33333182       0.08153640 </v>
   <v>       0.16775183       0.49998007       0.16359364 </v>
   <v>       0.16698693      -0.16730575       0.16625136 </v>
   <v>      -0.49976865       0.16854569       0.16659426 </v>
   <v>      -0.16617178       0.17046235       0.16772441 </v>
   <v>       0.49814808       0.49989721       0.16238928 </v>
   <v>      -0.16829583      -0.49939412       0.16558160 </v>
   <v>       0.49959450      -0.16856841       0.16657733 </v>
   <v>      -0.16658682      -0.16873568       0.16761520 </v>
   <v>      -0.33333182      -0.33333182       0.08153640 </v>
   <v>       0.00132513       0.00111748       0.24773960 </v>
   <v>       0.33395555      -0.00053335       0.24757473 </v>
   <v>       0.00244988       0.33616610       0.24967743 </v>
   <v>       0.33544626       0.33422567       0.25154063 </v>
   <v>      -0.33342857       0.00089502       0.24789836 </v>
   <v>       0.00045024      -0.33450267       0.24947307 </v>
   <v>       0.33368154      -0.33545509       0.25157729 </v>
   <v>      -0.33451657       0.33587572       0.25168187 </v>
   <v>      -0.33556392      -0.33401464       0.25129167 </v>
  </varray>
 </structure>
 <varray name="primitive_index" >
  <v type="int" >        1 </v>
  <v type="int" >        3 </v>
  <v type="int" >        7 </v>
  <v type="int" >        2 </v>
  <v type="int" >        4 </v>
  <v type="int" >       10 </v>
  <v type="int" >       11 </v>
  <v type="int" >       13 </v>
  <v type="int" >       14 </v>
  <v type="int" >        9 </v>
  <v type="int" >        8 </v>
  <v type="int" >        6 </v>
  <v type="int" >        5 </v>
  <v type="int" >       19 </v>
  <v type="int" >       12 </v>
  <v type="int" >       16 </v>
  <v type="int" >       15 </v>
  <v type="int" >       17 </v>
  <v type="int" >       22 </v>
  <v type="int" >       25 </v>
  <v type="int" >       20 </v>
  <v type="int" >       21 </v>
  <v type="int" >       23 </v>
  <v type="int" >       24 </v>
  <v type="int" >       26 </v>
  <v type="int" >       27 </v>
  <v type="int" >       18 </v>
  <v type="int" >       28 </v>
  <v type="int" >       29 </v>
  <v type="int" >       31 </v>
  <v type="int" >       32 </v>
  <v type="int" >       30 </v>
  <v type="int" >       34 </v>
  <v type="int" >       35 </v>
  <v type="int" >       33 </v>
  <v type="int" >       36 </v>
 </varray>
 <kpoints>
  <generation param="Monkhorst-Pack">
   <v type="int" name="divisions">       4        4        1 </v>
   <v name="usershift">      0.00000000       0.00000000       0.00000000 </v>
   <v name="genvec1">      0.25000000       0.00000000       0.00000000 </v>
   <v name="genvec2">      0.00000000       0.25000000       0.00000000 </v>
   <v name="genvec3">      0.00000000       0.00000000       1.00000000 </v>
   <v name="shift">      0.50000000       0.50000000       0.00000000 </v>
  </generation>
  <varray name="kpointlist" >
   <v>       0.12500000       0.12500000       0.00000000 </v>
   <v>       0.37500000       0.12500000       0.00000000 </v>
   <v>      -0.37500000       0.12500000       0.00000000 </v>
   <v>      -0.12500000       0.12500000       0.00000000 </v>
   <v>       0.12500000       0.37500000       0.00000000 </v>
   <v>       0.37500000       0.37500000       0.00000000 </v>
   <v>      -0.37500000       0.37500000       0.00000000 </v>
   <v>      -0.12500000       0.37500000       0.00000000 </v>
  </varray>
  <varray name="weights" >
   <v>       0.12500000 </v>
   <v>       0.12500000 </v>
   <v>       0.12500000 </v>
   <v>       0.12500000 </v>
   <v>       0.12500000 </v>
   <v>       0.12500000 </v>
   <v>       0.12500000 </v>
   <v>       0.12500000 </v>
  </varray>
 </kpoints>
 <parameters>
  <separator name="general" >
   <i type="string" name="SYSTEM">unknown system</i>
   <i type="logical" name="LCOMPAT"> F  </i>
  </separator>
  <separator name="electronic" >
   <i type="string" name="PREC">normal</i>
   <i name="ENMAX">    544.00000000</i>
   <i name="ENAUG">    586.98000000</i>
   <i name="EDIFF">      0.00001000</i>
   <i type="int" name="IALGO">    48</i>
   <i type="int" name="IWAVPR">    10</i>
   <i type="int" name="NBANDS">   240</i>
   <i name="NELECT">    396.00000000</i>
   <i type="int" name="TURBO">     0</i>
   <i type="int" name="IRESTART">     0</i>
   <i type="int" name="NREBOOT">     0</i>
   <i type="int" name="NMIN">     0</i>
   <i name="EREF">      0.00000000</i>
   <separator name="electronic smearing" >
    <i type="int" name="ISMEAR">     2</i>
    <i name="SIGMA">      0.20000000</i>
    <i name="KSPACING">      0.50000000</i>
    <i type="logical" name="KGAMMA"> T  </i>
   </separator>
   <separator name="electronic projectors" >
    <i type="logical" name="LREAL"> T  </i>
    <v name="ROPT">     -0.00050000</v>
    <i type="int" name="LMAXPAW">  -100</i>
    <i type="int" name="LMAXMIX">     2</i>
    <i type="logical" name="NLSPLINE"> F  </i>
   </separator>
   <separator name="electronic startup" >
    <i type="int" name="ISTART">     0</i>
    <i type="int" name="ICHARG">     2</i>
    <i type="int" name="INIWAV">     1</i>
   </separator>
   <separator name="electronic spin" >
    <i type="int" name="ISPIN">     1</i>
    <i type="logical" name="LNONCOLLINEAR"> F  </i>
    <v name="MAGMOM">      1.00000000      1.00000000      1.00000000      1.00000000      1.00000000      1.00000000      1.00000000      1.00000000      1.00000000      1.00000000      1.00000000      1.00000000      1.00000000      1.00000000      1.00000000      1.00000000      1.00000000      1.00000000      1.00000000      1.00000000
      1.00000000      1.00000000      1.00000000      1.00000000      1.00000000      1.00000000      1.00000000      1.00000000      1.00000000      1.00000000      1.00000000      1.00000000      1.00000000      1.00000000      1.00000000      1.00000000</v>
    <i name="NUPDOWN">     -1.00000000</i>
    <i type="logical" name="LSORBIT"> F  </i>
    <v name="SAXIS">      0.00000000      0.00000000      1.00000000</v>
    <i type="logical" name="LSPIRAL"> F  </i>
    <v name="QSPIRAL">      0.00000000      0.00000000      0.00000000</v>
    <i type="logical" name="LZEROZ"> F  </i>
   </separator>
   <separator name="electronic exchange-correlation" >
    <i type="logical" name="LASPH"> F  </i>
    <i type="logical" name="LMETAGGA"> F  </i>
   </separator>
   <separator name="electronic convergence" >
    <i type="int" name="NELM">   400</i>
    <i type="int" name="NELMDL">   -12</i>
    <i type="int" name="NELMIN">     2</i>
    <i name="ENINI">    544.00000000</i>
    <separator name="electronic convergence detail" >
     <i type="logical" name="LDIAG"> T  </i>
     <i type="logical" name="LSUBROT"> F  </i>
     <i name="WEIMIN">      0.00000000</i>
     <i name="EBREAK">      0.00000001</i>
     <i name="DEPER">      0.30000000</i>
     <i type="int" name="NRMM">     4</i>
     <i name="TIME">      0.40000000</i>
    </separator>
   </separator>
   <separator name="electronic mixer" >
    <i name="AMIX">      0.40000000</i>
    <i name="BMIX">      1.00000000</i>
    <i name="AMIN">      0.10000000</i>
    <i name="AMIX_MAG">      1.60000000</i>
    <i name="BMIX_MAG">      1.00000000</i>
    <separator name="electronic mixer details" >
     <i type="int" name="IMIX">     4</i>
     <i type="logical" name="MIXFIRST"> F  </i>
     <i type="int" name="MAXMIX">   -45</i>
     <i name="WC">    100.00000000</i>
     <i type="int" name="INIMIX">     1</i>
     <i type="int" name="MIXPRE">     1</i>
     <i type="int" name="MREMOVE">     5</i>
    </separator>
   </separator>
   <separator name="electronic dipolcorrection" >
    <i type="logical" name="LDIPOL"> T  </i>
    <i type="logical" name="LMONO"> F  </i>
    <i type="int" name="IDIPOL">     3</i>
    <i name="EPSILON">      1.00000000</i>
    <v name="DIPOL">   -100.00000000   -100.00000000   -100.00000000</v>
    <i name="EFIELD">      0.40000000</i>
   </separator>
  </separator>
  <separator name="grids" >
   <i type="int" name="NGX">    48</i>
   <i type="int" name="NGY">    48</i>
   <i type="int" name="NGZ">   128</i>
   <i type="int" name="NGXF">    96</i>
   <i type="int" name="NGYF">    96</i>
   <i type="int" name="NGZF">   256</i>
   <i type="logical" name="ADDGRID"> F  </i>
  </separator>
  <separator name="ionic" >
   <i type="int" name="NSW">     0</i>
   <i type="int" name="IBRION">    -1</i>
   <i type="int" name="MDALGO">     0</i>
   <i type="int" name="ISIF">     2</i>
   <i name="PSTRESS">      0.00000000</i>
   <i name="EDIFFG">     -0.05000000</i>
   <i type="int" name="NFREE">     0</i>
   <i name="POTIM">      0.50000000</i>
   <i name="SMASS">     -3.00000000</i>
   <i name="SCALEE">      1.00000000</i>
  </separator>
  <separator name="ionic md" >
   <i name="TEBEG">      0.00010000</i>
   <i name="TEEND">      0.00010000</i>
   <i type="int" name="NBLOCK">     1</i>
   <i type="int" name="KBLOCK">     1</i>
   <i type="int" name="NPACO">   256</i>
   <i name="APACO">     16.00000000</i>
  </separator>
  <separator name="symmetry" >
   <i type="int" name="ISYM">     0</i>
   <i name="SYMPREC">      0.00000000</i>
  </separator>
  <separator name="dos" >
   <i type="int" name="LORBIT">     0</i>
   <v name="RWIGS">     -1.00000000</v>
   <i type="int" name="NEDOS">   301</i>
   <i name="EMIN">     10.00000000</i>
   <i name="EMAX">    -10.00000000</i>
   <i name="EFERMI">      0.00000000</i>
  </separator>
  <separator name="writing" >
   <i type="int" name="NWRITE">     2</i>
   <i type="logical" name="LWAVE"> F  </i>
   <i type="logical" name="LDOWNSAMPLE"> F  </i>
   <i type="logical" name="LCHARG"> F  </i>
   <i type="logical" name="LPARD"> F  </i>
   <i type="logical" name="LVTOT"> F  </i>
   <i type="logical" name="LVHAR"> T  </i>
   <i type="logical" name="LELF"> F  </i>
   <i type="logical" name="LOPTICS"> F  </i>
   <v name="STM">      0.00000000      0.00000000      0.00000000      0.00000000      0.00000000      0.00000000      0.00000000</v>
  </separator>
  <separator name="performance" >
   <i type="int" name="NPAR">    16</i>
   <i type="int" name="NSIM">     4</i>
   <i type="int" name="NBLK">    -1</i>
   <i type="logical" name="LPLANE"> T  </i>
   <i type="logical" name="LSCALAPACK"> T  </i>
   <i type="logical" name="LSCAAWARE"> F  </i>
   <i type="logical" name="LSCALU"> F  </i>
   <i type="logical" name="LASYNC"> F  </i>
   <i type="logical" name="LORBITALREAL"> F  </i>
  </separator>
  <separator name="miscellaneous" >
   <i type="int" name="IDIOT">     3</i>
   <i type="int" name="ISPECIAL">     0</i>
   <i type="logical" name="LMUSIC"> F  </i>
   <v name="POMASS">     63.54600000</v>
   <v name="DARWINR">      0.00000000</v>
   <v name="DARWINV">      1.00000000</v>
   <i type="logical" name="LCORR"> T  </i>
  </separator>
  <i type="logical" name="GGA_COMPAT"> T  </i>
  <i type="logical" name="LBERRY"> F  </i>
  <i type="int" name="ICORELEVEL">     0</i>
  <i type="logical" name="LDAU"> F  </i>
  <i type="int" name="I_CONSTRAINED_M">     0</i>
  <separator name="electronic exchange-correlation" >
   <i type="string" name="GGA">RP</i>
   <i type="int" name="VOSKOWN">     1</i>
   <i type="logical" name="LHFCALC"> F  </i>
   <i type="string" name="PRECFOCK"></i>
   <i type="logical" name="LSYMGRAD"> F  </i>
   <i type="logical" name="LHFONE"> F  </i>
   <i type="logical" name="LRHFCALC"> F  </i>
   <i type="logical" name="LTHOMAS"> F  </i>
   <i type="logical" name="LMODELHF"> F  </i>
   <i name="ENCUT4O">     -1.00000000</i>
   <i type="int" name="EXXOEP">     0</i>
   <i type="int" name="FOURORBIT">     0</i>
   <i name="AEXX">      0.00000000</i>
   <i name="HFALPHA">      0.00000000</i>
   <i name="MCALPHA">      0.00000000</i>
   <i name="ALDAX">      1.00000000</i>
   <i name="AGGAX">      1.00000000</i>
   <i name="ALDAC">      1.00000000</i>
   <i name="AGGAC">      1.00000000</i>
   <i type="int" name="NKREDX">     1</i>
   <i type="int" name="NKREDY">     1</i>
   <i type="int" name="NKREDZ">     1</i>
   <i type="logical" name="SHIFTRED"> F  </i>
   <i type="logical" name="ODDONLY"> F  </i>
   <i type="logical" name="EVENONLY"> F  </i>
   <i type="int" name="LMAXFOCK">     0</i>
   <i type="int" name="NMAXFOCKAE">     0</i>
   <i type="logical" name="LFOCKAEDFT"> F  </i>
   <i name="HFSCREEN">      0.00000000</i>
   <i name="HFSCREENC">      0.00000000</i>
   <i type="int" name="NBANDSGWLOW">     0</i>
  </separator>
  <separator name="vdW DFT" >
   <i type="logical" name="LUSE_VDW"> F  </i>
   <i name="Zab_VDW">     -0.84910000</i>
   <i name="PARAM1">      0.12340000</i>
   <i name="PARAM2">      1.00000000</i>
   <i name="PARAM3">      0.00000000</i>
  </separator>
  <separator name="model GW" >
   <i type="int" name="MODEL_GW">     0</i>
   <i name="MODEL_EPS0">     21.99873060</i>
   <i name="MODEL_ALPHA">      1.00000000</i>
  </separator>
  <separator name="linear response parameters" >
   <i type="logical" name="LEPSILON"> F  </i>
   <i type="logical" name="LRPA"> F  </i>
   <i type="logical" name="LNABLA"> F  </i>
   <i type="logical" name="LVEL"> F  </i>
   <i type="int" name="KINTER">     0</i>
   <i name="CSHIFT">      0.10000000</i>
   <i name="OMEGAMAX">     -1.00000000</i>
   <i name="DEG_THRESHOLD">      0.00200000</i>
   <i name="RTIME">     -0.10000000</i>
   <i name="WPLASMAI">      0.00000000</i>
   <v name="DFIELD">      0.00000000      0.00000000      0.00000000</v>
   <v name="WPLASMA">      0.00000000      0.00000000      0.00000000      0.00000000      0.00000000      0.00000000      0.00000000      0.00000000      0.00000000</v>
  </separator>
  <separator name="orbital magnetization" >
   <i type="logical" name="NUCIND"> F  </i>
   <v name="MAGPOS">      0.00000000      0.00000000      0.00000000</v>
   <i type="logical" name="LNICSALL"> T  </i>
   <i type="logical" name="ORBITALMAG"> F  </i>
   <i type="logical" name="LMAGBLOCH"> F  </i>
   <i type="logical" name="LCHIMAG"> F  </i>
   <i type="logical" name="LGAUGE"> T  </i>
   <i type="int" name="MAGATOM">     0</i>
   <v name="MAGDIPOL">      0.00000000      0.00000000      0.00000000</v>
   <v name="AVECCONST">      0.00000000      0.00000000      0.00000000</v>
  </separator>
  <separator name="response functions" >
   <i type="logical" name="LADDER"> F  </i>
   <i type="logical" name="LRPAFORCE"> F  </i>
   <i type="logical" name="LFXC"> F  </i>
   <i type="logical" name="LHARTREE"> T  </i>
   <i type="int" name="IBSE">     0</i>
   <v type="int" name="KPOINT">    -1     0     0     0</v>
   <i type="logical" name="LTCTE"> F  </i>
   <i type="logical" name="LTETE"> F  </i>
   <i type="logical" name="LTRIPLET"> F  </i>
   <i type="logical" name="LFXCEPS"> F  </i>
   <i type="logical" name="LFXHEG"> F  </i>
   <i type="int" name="NATURALO">     2</i>
   <i type="logical" name="L2ORDER"> F  </i>
   <i type="logical" name="LMP2LT"> F  </i>
   <i type="logical" name="LUSEW"> F  </i>
   <i name="ENCUTGW">     -2.00000000</i>
   <i name="ENCUTGWSOFT">     -2.00000000</i>
   <i name="ENCUTLF">     -1.00000000</i>
   <i type="int" name="LMAXMP2">    -1</i>
   <i name="SCISSOR">      0.00000000</i>
   <i type="int" name="NOMEGA">     0</i>
   <i type="int" name="NOMEGAR">     0</i>
   <i type="int" name="NBANDSGW">    -1</i>
   <i type="int" name="NBANDSO">    -1</i>
   <i type="int" name="NBANDSV">    -1</i>
   <i type="int" name="NELM">   400</i>
   <i type="int" name="NELMHF">     1</i>
   <i type="int" name="DIM">     3</i>
   <i type="int" name="ANTIRES">     0</i>
   <i name="OMEGAMAX">    -30.00000000</i>
   <i name="OMEGAMIN">    -30.00000000</i>
   <i name="OMEGATL">   -200.00000000</i>
   <i type="int" name="OMEGAGRID">   140</i>
   <i name="CSHIFT">     -0.10000000</i>
   <i type="logical" name="SELFENERGY"> F  </i>
   <i type="logical" name="LSPECTRAL"> F  </i>
   <i type="logical" name="LSPECTRALGW"> F  </i>
   <i type="logical" name="LSINGLES"> F  </i>
   <i type="logical" name="LFERMIGW"> F  </i>
   <i type="logical" name="ODDONLYGW"> F  </i>
   <i type="logical" name="EVENONLYGW"> F  </i>
   <i type="int" name="NKREDLFX">     1</i>
   <i type="int" name="NKREDLFY">     1</i>
   <i type="int" name="NKREDLFZ">     1</i>
   <i type="int" name="MAXMEM">  2800</i>
   <i type="int" name="TELESCOPE">     0</i>
   <i type="int" name="TAUPAR">     1</i>
   <i type="int" name="OMEGAPAR">    -1</i>
   <i name="LAMBDA">      1.00000000</i>
  </separator>
  <separator name="External order field" >
   <i name="OFIELD_KAPPA">      0.00000000</i>
   <v name="OFIELD_K">      0.00000000      0.00000000      0.00000000</v>
   <i name="OFIELD_Q6_NEAR">      0.00000000</i>
   <i name="OFIELD_Q6_FAR">      0.00000000</i>
   <i name="OFIELD_A">      0.00000000</i>
  </separator>
  <separator name="solvation model" >
   <i type="logical" name="LSOL"> F  </i>
  </separator>
 </parameters>
 <atominfo>
  <atoms>      36 </atoms>
  <types>       1 </types>
  <array name="atoms" >
   <dimension dim="1">ion</dimension>
   <field type="string">element</field>
   <field type="int">atomtype</field>
   <set>
    <rc><c>Cu</c><c>   1</c></rc>
    <rc><c>Cu</c><c>   1</c></rc>
    <rc><c>Cu</c><c>   1</c></rc>
    <rc><c>Cu</c><c>   1</c></rc>
    <rc><c>Cu</c><c>   1</c></rc>
    <rc><c>Cu</c><c>   1</c></rc>
    <rc><c>Cu</c><c>   1</c></rc>
    <rc><c>Cu</c><c>   1</c></rc>
    <rc><c>Cu</c><c>   1</c></rc>
    <rc><c>Cu</c><c>   1</c></rc>
    <rc><c>Cu</c><c>   1</c></rc>
    <rc><c>Cu</c><c>   1</c></rc>
    <rc><c>Cu</c><c>   1</c></rc>
    <rc><c>Cu</c><c>   1</c></rc>
    <rc><c>Cu</c><c>   1</c></rc>
    <rc><c>Cu</c><c>   1</c></rc>
    <rc><c>Cu</c><c>   1</c></rc>
    <rc><c>Cu</c><c>   1</c></rc>
    <rc><c>Cu</c><c>   1</c></rc>
    <rc><c>Cu</c><c>   1</c></rc>
    <rc><c>Cu</c><c>   1</c></rc>
    <rc><c>Cu</c><c>   1</c></rc>
    <rc><c>Cu</c><c>   1</c></rc>
    <rc><c>Cu</c><c>   1</c></rc>
    <rc><c>Cu</c><c>   1</c></rc>
    <rc><c>Cu</c><c>   1</c></rc>
    <rc><c>Cu</c><c>   1</c></rc>
    <rc><c>Cu</c><c>   1</c></rc>
    <rc><c>Cu</c><c>   1</c></rc>
    <rc><c>Cu</c><c>   1</c></rc>
    <rc><c>Cu</c><c>   1</c></rc>
    <rc><c>Cu</c><c>   1</c></rc>
    <rc><c>Cu</c><c>   1</c></rc>
    <rc><c>Cu</c><c>   1</c></rc>
    <rc><c>Cu</c><c>   1</c></rc>
    <rc><c>Cu</c><c>   1</c></rc>
   </set>
  </array>
  <array name="atomtypes" >
   <dimension dim="1">type</dimension>
   <field type="int">atomspertype</field>
   <field type="string">element</field>
   <field>mass</field>
   <field>valence</field>
   <field type="string">pseudopotential</field>
   <set>
    <rc><c>  36</c><c>Cu</c><c>     63.54600000</c><c>     11.00000000</c><c>  PAW_PBE Cu 22Jun2005                  </c></rc>
   </set>
  </array>
 </atominfo>
 <structure name="initialpos" >
  <crystal>
   <varray name="basis" >
    <v>       7.70037500       0.00000000       0.00000000 </v>
    <v>       0.00000000       7.70037500       0.00000000 </v>
    <v>       0.00000000       0.00000000      22.25999800 </v>
   </varray>
   <i name="volume">   1319.92383604 </i>
   <varray name="rec_basis" >
    <v>       0.12986381       0.00000000       0.00000000 </v>
    <v>       0.00000000       0.12986381       0.00000000 </v>
    <v>       0.00000000       0.00000000       0.04492363 </v>
   </varray>
  </crystal>
  <varray name="positions" >
   <v>       0.16666708       0.16666708       0.00000000 </v>
   <v>       0.50000110       0.16666708       0.00000000 </v>
   <v>       0.83333526       0.16666708       0.00000000 </v>
   <v>       0.16666708       0.50000110       0.00000000 </v>
   <v>       0.50000110       0.50000110       0.00000000 </v>
   <v>       0.83333526       0.50000110       0.00000000 </v>
   <v>       0.16666708       0.83333526       0.00000000 </v>
   <v>       0.50000110       0.83333526       0.00000000 </v>
   <v>       0.83333526       0.83333526       0.00000000 </v>
   <v>       0.00000000       0.00000000       0.08153640 </v>
   <v>       0.33333416       0.00000000       0.08153640 </v>
   <v>       0.66666818       0.00000000       0.08153640 </v>
   <v>       0.00000000       0.33333416       0.08153640 </v>
   <v>       0.33333416       0.33333416       0.08153640 </v>
   <v>       0.66666818       0.33333416       0.08153640 </v>
   <v>       0.00000000       0.66666818       0.08153640 </v>
   <v>       0.33333416       0.66666818       0.08153640 </v>
   <v>       0.66666818       0.66666818       0.08153640 </v>
   <v>       0.16749132       0.16755171       0.16633056 </v>
   <v>       0.50023135       0.16854569       0.16659426 </v>
   <v>       0.83382822       0.17046235       0.16772441 </v>
   <v>       0.16775183       0.49998007       0.16359364 </v>
   <v>       0.49814808       0.49989721       0.16238928 </v>
   <v>       0.83170417       0.50060588       0.16558160 </v>
   <v>       0.16698693       0.83269425       0.16625136 </v>
   <v>       0.49959450       0.83143159       0.16657733 </v>
   <v>       0.83341318       0.83126432       0.16761520 </v>
   <v>       0.00132513       0.00111748       0.24773960 </v>
   <v>       0.33395555       0.99946665       0.24757473 </v>
   <v>       0.66657143       0.00089502       0.24789836 </v>
   <v>       0.00244988       0.33616610       0.24967743 </v>
   <v>       0.33544626       0.33422567       0.25154063 </v>
   <v>       0.66548343       0.33587572       0.25168187 </v>
   <v>       0.00045024       0.66549733       0.24947307 </v>
   <v>       0.33368154       0.66454491       0.25157729 </v>
   <v>       0.66443608       0.66598536       0.25129167 </v>
  </varray>
  <varray name="selective"  type="logical" >
   <v type="logical" >  F  F  F </v>
   <v type="logical" >  F  F  F </v>
   <v type="logical" >  F  F  F </v>
   <v type="logical" >  F  F  F </v>
   <v type="logical" >  F  F  F </v>
   <v type="logical" >  F  F  F </v>
   <v type="logical" >  F  F  F </v>
   <v type="logical" >  F  F  F </v>
   <v type="logical" >  F  F  F </v>
   <v type="logical" >  F  F  F </v>
   <v type="logical" >  F  F  F </v>
   <v type="logical" >  F  F  F </v>
   <v type="logical" >  F  F  F </v>
   <v type="logical" >  F  F  F </v>
   <v type="logical" >  F  F  F </v>
   <v type="logical" >  F  F  F </v>
   <v type="logical" >  F  F  F </v>
   <v type="logical" >  F  F  F </v>
   <v type="logical" >  T  T  T </v>
   <v type="logical" >  T  T  T </v>
   <v type="logical" >  T  T  T </v>
   <v type="logical" >  T  T  T </v>
   <v type="logical" >  T  T  T </v>
   <v type="logical" >  T  T  T </v>
   <v type="logical" >  T  T  T </v>
   <v type="logical" >  T  T  T </v>
   <v type="logical" >  T  T  T </v>
   <v type="logical" >  T  T  T </v>
   <v type="logical" >  T  T  T </v>
   <v type="logical" >  T  T  T </v>
   <v type="logical" >  T  T  T </v>
   <v type="logical" >  T  T  T </v>
   <v type="logical" >  T  T  T </v>
   <v type="logical" >  T  T  T </v>
   <v type="logical" >  T  T  T </v>
   <v type="logical" >  T  T  T </v>
  </varray>
  <nose>
   <v>      -3.00000000       0.00000000       0.00010000       0.00010000 </v>
  </nose>
 </structure>
 <calculation>
  <scstep>
   <time name="diag">    2.60    2.63</time>
   <time name="diis">    4.17    4.20</time>
   <time name="orth">    0.65    0.65</time>
   <time name="total">    7.53    7.59</time>
   <dipole>
    <v name="dipole">      0.00000000       0.00000000       0.00006939 </v>
    <i name="Tr[quadrupol]">  -4128.49377527 </i>
    <i name="Echarged">      0.00000000 </i>
    <i name="Edipol_quadrupol">      0.00000000 </i>
    <i name="Eion">      0.00000000 </i>
   </dipole>
   <energy>
    <i name="alphaZ">    674.29902454 </i>
    <i name="ewald"> 164226.44806453 </i>
    <i name="hartreedc">-212025.95640762 </i>
    <i name="XCdc">   1613.73814842 </i>
    <i name="pawpsdc">  44243.50493509 </i>
    <i name="pawaedc"> -48017.47383163 </i>
    <i name="eentropy">     -0.02272167 </i>
    <i name="bandstr">   2392.16036118 </i>
    <i name="atom">  50037.92390023 </i>
    <i name="e_fr_energy">   3144.62147307 </i>
    <i name="e_wo_entrp">   3144.64419474 </i>
    <i name="e_0_energy">   3144.62715349 </i>
   </energy>
  </scstep>
  <scstep>
   <time name="diag">    2.65    2.67</time>
   <time name="diis">    4.44    4.47</time>
   <time name="orth">    0.64    0.64</time>
   <time name="total">    7.73    7.79</time>
   <dipole>
    <v name="dipole">      0.00000000       0.00000000       0.00006939 </v>
    <i name="Tr[quadrupol]">  -4128.49377527 </i>
    <i name="Echarged">      0.00000000 </i>
    <i name="Edipol_quadrupol">      0.00000000 </i>
    <i name="Eion">      0.00000000 </i>
   </dipole>
   <energy>
    <i name="e_fr_energy">    710.70486087 </i>
    <i name="e_wo_entrp">    710.70660603 </i>
    <i name="e_0_energy">    710.70529716 </i>
   </energy>
  </scstep>
  <scstep>
   <time name="diag">    2.68    2.70</time>
   <time name="diis">    4.20    4.23</time>
   <time name="orth">    0.63    0.63</time>
   <time name="total">    7.51    7.56</time>
   <dipole>
    <v name="dipole">      0.00000000       0.00000000       0.00006939 </v>
    <i name="Tr[quadrupol]">  -4128.49377527 </i>
    <i name="Echarged">      0.00000000 </i>
    <i name="Edipol_quadrupol">      0.00000000 </i>
    <i name="Eion">      0.00000000 </i>
   </dipole>
   <energy>
    <i name="e_fr_energy">    173.80226510 </i>
    <i name="e_wo_entrp">    173.75717258 </i>
    <i name="e_0_energy">    173.79099197 </i>
   </energy>
  </scstep>
  <scstep>
   <time name="diag">    2.60    2.62</time>
   <time name="diis">    4.39    4.42</time>
   <time name="orth">    0.65    0.65</time>
   <time name="total">    7.64    7.69</time>
   <dipole>
    <v name="dipole">      0.00000000       0.00000000       0.00006939 </v>
    <i name="Tr[quadrupol]">  -4128.49377527 </i>
    <i name="Echarged">      0.00000000 </i>
    <i name="Edipol_quadrupol">      0.00000000 </i>
    <i name="Eion">      0.00000000 </i>
   </dipole>
   <energy>
    <i name="e_fr_energy">    -40.69603015 </i>
    <i name="e_wo_entrp">    -40.69517375 </i>
    <i name="e_0_energy">    -40.69581605 </i>
   </energy>
  </scstep>
  <scstep>
   <time name="diag">    2.75    2.76</time>
   <time name="diis">    4.40    4.43</time>
   <time name="orth">    0.63    0.63</time>
   <time name="total">    7.77    7.82</time>
   <dipole>
    <v name="dipole">      0.00000000       0.00000000       0.00006939 </v>
    <i name="Tr[quadrupol]">  -4128.49377527 </i>
    <i name="Echarged">      0.00000000 </i>
    <i name="Edipol_quadrupol">      0.00000000 </i>
    <i name="Eion">      0.00000000 </i>
   </dipole>
   <energy>
    <i name="e_fr_energy">    -94.95205946 </i>
    <i name="e_wo_entrp">    -94.95058088 </i>
    <i name="e_0_energy">    -94.95168982 </i>
   </energy>
  </scstep>
  <scstep>
   <time name="diag">    2.67    2.69</time>
   <time name="diis">    4.14    4.17</time>
   <time name="orth">    0.64    0.64</time>
   <time name="total">    7.46    7.50</time>
   <dipole>
    <v name="dipole">      0.00000000       0.00000000       0.00006939 </v>
    <i name="Tr[quadrupol]">  -4128.49377527 </i>
    <i name="Echarged">      0.00000000 </i>
    <i name="Edipol_quadrupol">      0.00000000 </i>
    <i name="Eion">      0.00000000 </i>
   </dipole>
   <energy>
    <i name="e_fr_energy">   -117.75956933 </i>
    <i name="e_wo_entrp">   -117.77196464 </i>
    <i name="e_0_energy">   -117.76266816 </i>
   </energy>
  </scstep>
  <scstep>
   <time name="diag">    2.61    2.62</time>
   <time name="diis">    4.48    4.51</time>
   <time name="orth">    0.67    0.67</time>
   <time name="total">    7.76    7.81</time>
   <dipole>
    <v name="dipole">      0.00000000       0.00000000       0.00006939 </v>
    <i name="Tr[quadrupol]">  -4128.49377527 </i>
    <i name="Echarged">      0.00000000 </i>
    <i name="Edipol_quadrupol">      0.00000000 </i>
    <i name="Eion">      0.00000000 </i>
   </dipole>
   <energy>
    <i name="e_fr_energy">   -129.11111161 </i>
    <i name="e_wo_entrp">   -129.18001283 </i>
    <i name="e_0_energy">   -129.12833691 </i>
   </energy>
  </scstep>
  <scstep>
   <time name="diag">    2.82    2.83</time>
   <time name="diis">    4.98    5.01</time>
   <time name="orth">    0.67    0.67</time>
   <time name="total">    8.47    8.52</time>
   <dipole>
    <v name="dipole">      0.00000000       0.00000000       0.00006939 </v>
    <i name="Tr[quadrupol]">  -4128.49377527 </i>
    <i name="Echarged">      0.00000000 </i>
    <i name="Edipol_quadrupol">      0.00000000 </i>
    <i name="Eion">      0.00000000 </i>
   </dipole>
   <energy>
    <i name="e_fr_energy">   -134.96768845 </i>
    <i name="e_wo_entrp">   -135.04676414 </i>
    <i name="e_0_energy">   -134.98745737 </i>
   </energy>
  </scstep>
  <scstep>
   <time name="diag">    2.91    2.92</time>
   <time name="diis">   14.20   14.29</time>
   <time name="orth">    0.67    0.67</time>
   <time name="total">   17.77   17.89</time>
   <dipole>
    <v name="dipole">      0.00000000       0.00000000       0.00006939 </v>
    <i name="Tr[quadrupol]">  -4128.49377527 </i>
    <i name="Echarged">      0.00000000 </i>
    <i name="Edipol_quadrupol">      0.00000000 </i>
    <i name="Eion">      0.00000000 </i>
   </dipole>
   <energy>
    <i name="e_fr_energy">   -140.66645736 </i>
    <i name="e_wo_entrp">   -140.75075178 </i>
    <i name="e_0_energy">   -140.68753096 </i>
   </energy>
  </scstep>
  <scstep>
   <time name="diag">    2.89    2.91</time>
   <time name="diis">    9.41    9.47</time>
   <time name="orth">    0.63    0.63</time>
   <time name="total">   12.93   13.01</time>
   <dipole>
    <v name="dipole">      0.00000000       0.00000000       0.00006939 </v>
    <i name="Tr[quadrupol]">  -4128.49377527 </i>
    <i name="Echarged">      0.00000000 </i>
    <i name="Edipol_quadrupol">      0.00000000 </i>
    <i name="Eion">      0.00000000 </i>
   </dipole>
   <energy>
    <i name="e_fr_energy">   -140.75359186 </i>
    <i name="e_wo_entrp">   -140.83459851 </i>
    <i name="e_0_energy">   -140.77384352 </i>
   </energy>
  </scstep>
  <scstep>
   <time name="diag">    2.67    2.68</time>
   <time name="diis">   11.63   11.71</time>
   <time name="orth">    0.63    0.64</time>
   <time name="total">   14.93   15.03</time>
   <dipole>
    <v name="dipole">      0.00000000       0.00000000       0.00006939 </v>
    <i name="Tr[quadrupol]">  -4128.49377527 </i>
    <i name="Echarged">      0.00000000 </i>
    <i name="Edipol_quadrupol">      0.00000000 </i>
    <i name="Eion">      0.00000000 </i>
   </dipole>
   <energy>
    <i name="e_fr_energy">   -140.80922528 </i>
    <i name="e_wo_entrp">   -140.88974190 </i>
    <i name="e_0_energy">   -140.82935443 </i>
   </energy>
  </scstep>
  <scstep>
   <time name="diag">    2.65    2.67</time>
   <time name="diis">    9.35    9.41</time>
   <time name="orth">    0.63    0.63</time>
   <time name="total">   13.37   13.46</time>
   <dipole>
    <v name="dipole">      0.00000000       0.00000000       0.00006939 </v>
    <i name="Tr[quadrupol]">  -4128.49377527 </i>
    <i name="Echarged">      0.00000000 </i>
    <i name="Edipol_quadrupol">      0.00000000 </i>
    <i name="Eion">      0.00000000 </i>
   </dipole>
   <energy>
    <i name="e_fr_energy">   -140.80987657 </i>
    <i name="e_wo_entrp">   -140.89040678 </i>
    <i name="e_0_energy">   -140.83000912 </i>
   </energy>
  </scstep>
  <scstep>
   <time name="diag">    2.65    2.66</time>
   <time name="diis">   11.49   11.57</time>
   <time name="orth">    0.63    0.64</time>
   <time name="total">   15.56   15.66</time>
   <dipole>
    <v name="dipole">      0.00000000       0.00000000       5.68198585 </v>
    <i name="Tr[quadrupol]">  -4129.80169576 </i>
    <i name="Echarged">      0.00000000 </i>
    <i name="Edipol_quadrupol">      0.00000000 </i>
    <i name="Eion">      0.00000000 </i>
   </dipole>
   <energy>
    <i name="e_fr_energy">   -328.56864117 </i>
    <i name="e_wo_entrp">   -328.49405117 </i>
    <i name="e_0_energy">   -328.54999367 </i>
   </energy>
  </scstep>
  <scstep>
   <time name="diag">    2.61    2.62</time>
   <time name="diis">    8.16    8.21</time>
   <time name="orth">    0.64    0.65</time>
   <time name="total">   12.18   12.26</time>
   <dipole>
    <v name="dipole">      0.00000000       0.00000000       1.17835498 </v>
    <i name="Tr[quadrupol]">  -4130.10828382 </i>
    <i name="Echarged">      0.00000000 </i>
    <i name="Edipol_quadrupol">      0.00000000 </i>
    <i name="Eion">      0.00000000 </i>
   </dipole>
   <energy>
    <i name="e_fr_energy">   -145.31791902 </i>
    <i name="e_wo_entrp">   -145.35533441 </i>
    <i name="e_0_energy">   -145.32727287 </i>
   </energy>
  </scstep>
  <scstep>
   <time name="diag">    2.59    2.60</time>
   <time name="diis">    8.67    8.73</time>
   <time name="orth">    0.63    0.63</time>
   <time name="total">   12.63   12.72</time>
   <dipole>
    <v name="dipole">      0.00000000       0.00000000       0.82742350 </v>
    <i name="Tr[quadrupol]">  -4128.92521225 </i>
    <i name="Echarged">      0.00000000 </i>
    <i name="Edipol_quadrupol">      0.00000000 </i>
    <i name="Eion">      0.00000000 </i>
   </dipole>
   <energy>
    <i name="e_fr_energy">   -111.50975257 </i>
    <i name="e_wo_entrp">   -111.54464219 </i>
    <i name="e_0_energy">   -111.51847498 </i>
   </energy>
  </scstep>
  <scstep>
   <time name="diag">    2.66    2.68</time>
   <time name="diis">    8.80    8.86</time>
   <time name="orth">    0.65    0.65</time>
   <time name="total">   12.82   12.90</time>
   <dipole>
    <v name="dipole">      0.00000000       0.00000000       1.20088672 </v>
    <i name="Tr[quadrupol]">  -4129.11417314 </i>
    <i name="Echarged">      0.00000000 </i>
    <i name="Edipol_quadrupol">      0.00000000 </i>
    <i name="Eion">      0.00000000 </i>
   </dipole>
   <energy>
    <i name="e_fr_energy">   -109.26443530 </i>
    <i name="e_wo_entrp">   -109.30654924 </i>
    <i name="e_0_energy">   -109.27496378 </i>
   </energy>
  </scstep>
  <scstep>
   <time name="diag">    2.63    2.65</time>
   <time name="diis">    8.32    8.38</time>
   <time name="orth">    0.62    0.63</time>
   <time name="total">   12.32   12.40</time>
   <dipole>
    <v name="dipole">      0.00000000       0.00000000       1.11663486 </v>
    <i name="Tr[quadrupol]">  -4129.63910898 </i>
    <i name="Echarged">      0.00000000 </i>
    <i name="Edipol_quadrupol">      0.00000000 </i>
    <i name="Eion">      0.00000000 </i>
   </dipole>
   <energy>
    <i name="e_fr_energy">   -108.28388493 </i>
    <i name="e_wo_entrp">   -108.30372325 </i>
    <i name="e_0_energy">   -108.28884451 </i>
   </energy>
  </scstep>
  <scstep>
   <time name="diag">    2.59    2.60</time>
   <time name="diis">   10.78   10.85</time>
   <time name="orth">    0.63    0.63</time>
   <time name="total">   14.74   14.84</time>
   <dipole>
    <v name="dipole">      0.00000000       0.00000000       1.12060729 </v>
    <i name="Tr[quadrupol]">  -4130.11264383 </i>
    <i name="Echarged">      0.00000000 </i>
    <i name="Edipol_quadrupol">      0.00000000 </i>
    <i name="Eion">      0.00000000 </i>
   </dipole>
   <energy>
    <i name="e_fr_energy">   -108.30890703 </i>
    <i name="e_wo_entrp">   -108.31714045 </i>
    <i name="e_0_energy">   -108.31096539 </i>
   </energy>
  </scstep>
  <scstep>
   <time name="diag">    2.61    2.63</time>
   <time name="diis">    8.68    8.74</time>
   <time name="orth">    0.67    0.67</time>
   <time name="total">   12.73   12.81</time>
   <dipole>
    <v name="dipole">      0.00000000       0.00000000       1.16840668 </v>
    <i name="Tr[quadrupol]">  -4130.60692059 </i>
    <i name="Echarged">      0.00000000 </i>
    <i name="Edipol_quadrupol">      0.00000000 </i>
    <i name="Eion">      0.00000000 </i>
   </dipole>
   <energy>
    <i name="e_fr_energy">   -108.20474390 </i>
    <i name="e_wo_entrp">   -108.20856578 </i>
    <i name="e_0_energy">   -108.20569937 </i>
   </energy>
  </scstep>
  <scstep>
   <time name="diag">    2.76    2.78</time>
   <time name="diis">    9.87    9.93</time>
   <time name="orth">    0.71    0.72</time>
   <time name="total">   14.36   14.45</time>
   <dipole>
    <v name="dipole">      0.00000000       0.00000000       1.18984190 </v>
    <i name="Tr[quadrupol]">  -4131.02023835 </i>
    <i name="Echarged">      0.00000000 </i>
    <i name="Edipol_quadrupol">      0.00000000 </i>
    <i name="Eion">      0.00000000 </i>
   </dipole>
   <energy>
    <i name="e_fr_energy">   -108.19615221 </i>
    <i name="e_wo_entrp">   -108.19604987 </i>
    <i name="e_0_energy">   -108.19612662 </i>
   </energy>
  </scstep>
  <scstep>
   <time name="diag">    3.15    3.17</time>
   <time name="diis">   11.34   11.41</time>
   <time name="orth">    0.73    0.73</time>
   <time name="total">   16.17   16.28</time>
   <dipole>
    <v name="dipole">      0.00000000       0.00000000       1.18766476 </v>
    <i name="Tr[quadrupol]">  -4131.23314845 </i>
    <i name="Echarged">      0.00000000 </i>
    <i name="Edipol_quadrupol">      0.00000000 </i>
    <i name="Eion">      0.00000000 </i>
   </dipole>
   <energy>
    <i name="e_fr_energy">   -108.18143410 </i>
    <i name="e_wo_entrp">   -108.18060835 </i>
    <i name="e_0_energy">   -108.18122766 </i>
   </energy>
  </scstep>
  <scstep>
   <time name="diag">    3.13    3.16</time>
   <time name="diis">   11.32   11.39</time>
   <time name="orth">    0.71    0.72</time>
   <time name="total">   16.21   16.31</time>
   <dipole>
    <v name="dipole">      0.00000000       0.00000000       1.17180043 </v>
    <i name="Tr[quadrupol]">  -4131.52686278 </i>
    <i name="Echarged">      0.00000000 </i>
    <i name="Edipol_quadrupol">      0.00000000 </i>
    <i name="Eion">      0.00000000 </i>
   </dipole>
   <energy>
    <i name="e_fr_energy">   -108.17562954 </i>
    <i name="e_wo_entrp">   -108.17253695 </i>
    <i name="e_0_energy">   -108.17485639 </i>
   </energy>
  </scstep>
  <scstep>
   <time name="diag">    3.03    3.05</time>
   <time name="diis">   10.92   10.99</time>
   <time name="orth">    0.73    0.73</time>
   <time name="total">   15.60   15.70</time>
   <dipole>
    <v name="dipole">      0.00000000       0.00000000       1.16354059 </v>
    <i name="Tr[quadrupol]">  -4131.87372537 </i>
    <i name="Echarged">      0.00000000 </i>
    <i name="Edipol_quadrupol">      0.00000000 </i>
    <i name="Eion">      0.00000000 </i>
   </dipole>
   <energy>
    <i name="e_fr_energy">   -108.17290963 </i>
    <i name="e_wo_entrp">   -108.16833286 </i>
    <i name="e_0_energy">   -108.17176544 </i>
   </energy>
  </scstep>
  <scstep>
   <time name="diag">    3.18    3.20</time>
   <time name="diis">   10.71   10.78</time>
   <time name="orth">    0.71    0.71</time>
   <time name="total">   15.63   15.74</time>
   <dipole>
    <v name="dipole">      0.00000000       0.00000000       1.14856721 </v>
    <i name="Tr[quadrupol]">  -4132.35340512 </i>
    <i name="Echarged">      0.00000000 </i>
    <i name="Edipol_quadrupol">      0.00000000 </i>
    <i name="Eion">      0.00000000 </i>
   </dipole>
   <energy>
    <i name="e_fr_energy">   -108.17128903 </i>
    <i name="e_wo_entrp">   -108.16389199 </i>
    <i name="e_0_energy">   -108.16943977 </i>
   </energy>
  </scstep>
  <scstep>
   <time name="diag">    3.13    3.15</time>
   <time name="diis">   10.54   10.61</time>
   <time name="orth">    0.70    0.70</time>
   <time name="total">   15.32   15.42</time>
   <dipole>
    <v name="dipole">      0.00000000       0.00000000       1.14387527 </v>
    <i name="Tr[quadrupol]">  -4132.40058679 </i>
    <i name="Echarged">      0.00000000 </i>
    <i name="Edipol_quadrupol">      0.00000000 </i>
    <i name="Eion">      0.00000000 </i>
   </dipole>
   <energy>
    <i name="e_fr_energy">   -108.17179176 </i>
    <i name="e_wo_entrp">   -108.16425386 </i>
    <i name="e_0_energy">   -108.16990728 </i>
   </energy>
  </scstep>
  <scstep>
   <time name="diag">    3.14    3.16</time>
   <time name="diis">   10.90   10.97</time>
   <time name="orth">    0.73    0.73</time>
   <time name="total">   15.83   15.94</time>
   <dipole>
    <v name="dipole">      0.00000000       0.00000000       1.13785600 </v>
    <i name="Tr[quadrupol]">  -4132.45567171 </i>
    <i name="Echarged">      0.00000000 </i>
    <i name="Edipol_quadrupol">      0.00000000 </i>
    <i name="Eion">      0.00000000 </i>
   </dipole>
   <energy>
    <i name="e_fr_energy">   -108.17292623 </i>
    <i name="e_wo_entrp">   -108.16544572 </i>
    <i name="e_0_energy">   -108.17105610 </i>
   </energy>
  </scstep>
  <scstep>
   <time name="diag">    3.13    3.15</time>
   <time name="diis">   10.09   10.16</time>
   <time name="orth">    0.72    0.72</time>
   <time name="total">   14.95   15.05</time>
   <dipole>
    <v name="dipole">      0.00000000       0.00000000       1.13636040 </v>
    <i name="Tr[quadrupol]">  -4132.70824172 </i>
    <i name="Echarged">      0.00000000 </i>
    <i name="Edipol_quadrupol">      0.00000000 </i>
    <i name="Eion">      0.00000000 </i>
   </dipole>
   <energy>
    <i name="e_fr_energy">   -108.17392504 </i>
    <i name="e_wo_entrp">   -108.16632858 </i>
    <i name="e_0_energy">   -108.17202593 </i>
   </energy>
  </scstep>
  <scstep>
   <time name="diag">    3.16    3.18</time>
   <time name="diis">    6.53    6.57</time>
   <time name="orth">    0.71    0.71</time>
   <time name="total">   11.32   11.39</time>
   <dipole>
    <v name="dipole">      0.00000000       0.00000000       1.13536559 </v>
    <i name="Tr[quadrupol]">  -4132.92197087 </i>
    <i name="Echarged">      0.00000000 </i>
    <i name="Edipol_quadrupol">      0.00000000 </i>
    <i name="Eion">      0.00000000 </i>
   </dipole>
   <energy>
    <i name="e_fr_energy">   -108.17411180 </i>
    <i name="e_wo_entrp">   -108.16648056 </i>
    <i name="e_0_energy">   -108.17220399 </i>
   </energy>
  </scstep>
  <scstep>
   <time name="diag">    2.97    2.99</time>
   <time name="diis">    6.97    7.01</time>
   <time name="orth">    0.71    0.72</time>
   <time name="total">   11.62   11.69</time>
   <dipole>
    <v name="dipole">      0.00000000       0.00000000       1.13517263 </v>
    <i name="Tr[quadrupol]">  -4133.54346743 </i>
    <i name="Echarged">      0.00000000 </i>
    <i name="Edipol_quadrupol">      0.00000000 </i>
    <i name="Eion">      0.00000000 </i>
   </dipole>
   <energy>
    <i name="e_fr_energy">   -108.17434862 </i>
    <i name="e_wo_entrp">   -108.16670854 </i>
    <i name="e_0_energy">   -108.17243860 </i>
   </energy>
  </scstep>
  <scstep>
   <time name="diag">    3.13    3.15</time>
   <time name="diis">    6.53    6.57</time>
   <time name="orth">    0.72    0.73</time>
   <time name="total">   11.43   11.50</time>
   <dipole>
    <v name="dipole">      0.00000000       0.00000000       1.13732627 </v>
    <i name="Tr[quadrupol]">  -4132.77912370 </i>
    <i name="Echarged">      0.00000000 </i>
    <i name="Edipol_quadrupol">      0.00000000 </i>
    <i name="Eion">      0.00000000 </i>
   </dipole>
   <energy>
    <i name="e_fr_energy">   -108.17442210 </i>
    <i name="e_wo_entrp">   -108.16685346 </i>
    <i name="e_0_energy">   -108.17252994 </i>
   </energy>
  </scstep>
  <scstep>
   <time name="diag">    3.14    3.16</time>
   <time name="diis">    6.73    6.77</time>
   <time name="orth">    0.72    0.72</time>
   <time name="total">   11.55   11.63</time>
   <dipole>
    <v name="dipole">      0.00000000       0.00000000       1.13783699 </v>
    <i name="Tr[quadrupol]">  -4132.58793394 </i>
    <i name="Echarged">      0.00000000 </i>
    <i name="Edipol_quadrupol">      0.00000000 </i>
    <i name="Eion">      0.00000000 </i>
   </dipole>
   <energy>
    <i name="e_fr_energy">   -108.17443336 </i>
    <i name="e_wo_entrp">   -108.16686412 </i>
    <i name="e_0_energy">   -108.17254105 </i>
   </energy>
  </scstep>
  <scstep>
   <time name="diag">    2.98    3.00</time>
   <time name="diis">    5.66    5.70</time>
   <time name="orth">    0.67    0.67</time>
   <time name="total">   10.14   10.22</time>
   <dipole>
    <v name="dipole">      0.00000000       0.00000000       1.13960755 </v>
    <i name="Tr[quadrupol]">  -4132.59842882 </i>
    <i name="Echarged">      0.00000000 </i>
    <i name="Edipol_quadrupol">      0.00000000 </i>
    <i name="Eion">      0.00000000 </i>
   </dipole>
   <energy>
    <i name="e_fr_energy">   -108.17448500 </i>
    <i name="e_wo_entrp">   -108.16690946 </i>
    <i name="e_0_energy">   -108.17259112 </i>
   </energy>
  </scstep>
  <scstep>
   <time name="diag">    2.88    2.89</time>
   <time name="diis">    5.36    5.40</time>
   <time name="orth">    0.71    0.71</time>
   <time name="total">    9.84    9.91</time>
   <dipole>
    <v name="dipole">      0.00000000       0.00000000       1.14408511 </v>
    <i name="Tr[quadrupol]">  -4132.82061131 </i>
    <i name="Echarged">      0.00000000 </i>
    <i name="Edipol_quadrupol">      0.00000000 </i>
    <i name="Eion">      0.00000000 </i>
   </dipole>
   <energy>
    <i name="e_fr_energy">   -108.17458791 </i>
    <i name="e_wo_entrp">   -108.16700120 </i>
    <i name="e_0_energy">   -108.17269123 </i>
   </energy>
  </scstep>
  <scstep>
   <time name="diag">    3.02    3.04</time>
   <time name="diis">    6.28    6.32</time>
   <time name="orth">    0.69    0.70</time>
   <time name="total">   10.95   11.02</time>
   <dipole>
    <v name="dipole">      0.00000000       0.00000000       1.14472065 </v>
    <i name="Tr[quadrupol]">  -4133.02608331 </i>
    <i name="Echarged">      0.00000000 </i>
    <i name="Edipol_quadrupol">      0.00000000 </i>
    <i name="Eion">      0.00000000 </i>
   </dipole>
   <energy>
    <i name="e_fr_energy">   -108.17461315 </i>
    <i name="e_wo_entrp">   -108.16700761 </i>
    <i name="e_0_energy">   -108.17271176 </i>
   </energy>
  </scstep>
  <scstep>
   <time name="diag">    2.89    2.92</time>
   <time name="diis">    6.11    6.16</time>
   <time name="orth">    0.68    0.68</time>
   <time name="total">   10.59   10.67</time>
   <dipole>
    <v name="dipole">      0.00000000       0.00000000       1.14529666 </v>
    <i name="Tr[quadrupol]">  -4133.03067137 </i>
    <i name="Echarged">      0.00000000 </i>
    <i name="Edipol_quadrupol">      0.00000000 </i>
    <i name="Eion">      0.00000000 </i>
   </dipole>
   <energy>
    <i name="e_fr_energy">   -108.17463021 </i>
    <i name="e_wo_entrp">   -108.16701190 </i>
    <i name="e_0_energy">   -108.17272563 </i>
   </energy>
  </scstep>
  <scstep>
   <time name="diag">    2.82    2.84</time>
   <time name="diis">    6.23    6.27</time>
   <time name="orth">    0.70    0.71</time>
   <time name="total">   10.69   10.76</time>
   <dipole>
    <v name="dipole">      0.00000000       0.00000000       1.14693096 </v>
    <i name="Tr[quadrupol]">  -4135.02761974 </i>
    <i name="Echarged">      0.00000000 </i>
    <i name="Edipol_quadrupol">      0.00000000 </i>
    <i name="Eion">      0.00000000 </i>
   </dipole>
   <energy>
    <i name="e_fr_energy">   -108.17469062 </i>
    <i name="e_wo_entrp">   -108.16708168 </i>
    <i name="e_0_energy">   -108.17278839 </i>
   </energy>
  </scstep>
  <scstep>
   <time name="diag">    2.91    2.93</time>
   <time name="diis">    5.50    5.54</time>
   <time name="orth">    0.69    0.69</time>
   <time name="total">    9.19    9.26</time>
   <dipole>
    <v name="dipole">      0.00000000       0.00000000       1.14643304 </v>
    <i name="Tr[quadrupol]">  -4134.62943338 </i>
    <i name="Echarged">      0.00000000 </i>
    <i name="Edipol_quadrupol">      0.00000000 </i>
    <i name="Eion">      0.00000000 </i>
   </dipole>
   <energy>
    <i name="alphaZ">    724.85393126 </i>
    <i name="ewald"> 164226.44806453 </i>
    <i name="hartreedc">-211605.35414588 </i>
    <i name="XCdc">   1581.48513959 </i>
    <i name="pawpsdc">  46407.39391555 </i>
    <i name="pawaedc"> -50248.61927593 </i>
    <i name="eentropy">     -0.00762592 </i>
    <i name="bandstr">  -1232.29858879 </i>
    <i name="atom">  50037.92390023 </i>
    <i name="e_fr_energy">   -108.17468536 </i>
    <i name="e_wo_entrp">   -108.16705944 </i>
    <i name="e_0_energy">   -108.17277888 </i>
   </energy>
  </scstep>
  <structure>
   <crystal>
    <varray name="basis" >
     <v>       7.70037500       0.00000000       0.00000000 </v>
     <v>       0.00000000       7.70037500       0.00000000 </v>
     <v>       0.00000000       0.00000000      22.25999800 </v>
    </varray>
    <i name="volume">   1319.92383604 </i>
    <varray name="rec_basis" >
     <v>       0.12986381       0.00000000       0.00000000 </v>
     <v>       0.00000000       0.12986381       0.00000000 </v>
     <v>       0.00000000       0.00000000       0.04492363 </v>
    </varray>
   </crystal>
   <varray name="positions" >
    <v>       0.16666708       0.16666708       0.00000000 </v>
    <v>       0.50000110       0.16666708       0.00000000 </v>
    <v>       0.83333526       0.16666708       0.00000000 </v>
    <v>       0.16666708       0.50000110       0.00000000 </v>
    <v>       0.50000110       0.50000110       0.00000000 </v>
    <v>       0.83333526       0.50000110       0.00000000 </v>
    <v>       0.16666708       0.83333526       0.00000000 </v>
    <v>       0.50000110       0.83333526       0.00000000 </v>
    <v>       0.83333526       0.83333526       0.00000000 </v>
    <v>       0.00000000       0.00000000       0.08153640 </v>
    <v>       0.33333416       0.00000000       0.08153640 </v>
    <v>       0.66666818       0.00000000       0.08153640 </v>
    <v>       0.00000000       0.33333416       0.08153640 </v>
    <v>       0.33333416       0.33333416       0.08153640 </v>
    <v>       0.66666818       0.33333416       0.08153640 </v>
    <v>       0.00000000       0.66666818       0.08153640 </v>
    <v>       0.33333416       0.66666818       0.08153640 </v>
    <v>       0.66666818       0.66666818       0.08153640 </v>
    <v>       0.16749132       0.16755171       0.16633056 </v>
    <v>       0.50023135       0.16854569       0.16659426 </v>
    <v>       0.83382822       0.17046235       0.16772441 </v>
    <v>       0.16775183       0.49998007       0.16359364 </v>
    <v>       0.49814808       0.49989721       0.16238928 </v>
    <v>       0.83170417       0.50060588       0.16558160 </v>
    <v>       0.16698693       0.83269425       0.16625136 </v>
    <v>       0.49959450       0.83143159       0.16657733 </v>
    <v>       0.83341318       0.83126432       0.16761520 </v>
    <v>       0.00132513       0.00111748       0.24773960 </v>
    <v>       0.33395555       0.99946665       0.24757473 </v>
    <v>       0.66657143       0.00089502       0.24789836 </v>
    <v>       0.00244988       0.33616610       0.24967743 </v>
    <v>       0.33544626       0.33422567       0.25154063 </v>
    <v>       0.66548343       0.33587572       0.25168187 </v>
    <v>       0.00045024       0.66549733       0.24947307 </v>
    <v>       0.33368154       0.66454491       0.25157729 </v>
    <v>       0.66443608       0.66598536       0.25129167 </v>
   </varray>
  </structure>
  <varray name="forces" >
   <v>       0.00082196       0.00085444       0.01200352 </v>
   <v>      -0.00034167      -0.00037333       0.01108352 </v>
   <v>      -0.00078271       0.00056855       0.01645809 </v>
   <v>      -0.00162998      -0.00027288      -0.00008827 </v>
   <v>       0.00115580      -0.00020200      -0.00723929 </v>
   <v>      -0.00009783      -0.00009970       0.00485124 </v>
   <v>       0.00057151      -0.00107146       0.01158257 </v>
   <v>      -0.00014343       0.00005637       0.01124267 </v>
   <v>      -0.00093537      -0.00054758       0.01700021 </v>
   <v>      -0.03661152       0.00648595       0.09221421 </v>
   <v>       0.01394967       0.00166578       0.04842287 </v>
   <v>       0.03003048       0.00435022       0.11005943 </v>
   <v>      -0.03726547      -0.04551726      -0.00466754 </v>
   <v>      -0.01929384      -0.09891514      -0.10128255 </v>
   <v>       0.04980665      -0.06992858      -0.03222622 </v>
   <v>      -0.03950955       0.05159151      -0.00574063 </v>
   <v>      -0.02173020       0.09697130      -0.10111961 </v>
   <v>       0.04528386       0.07594077      -0.03155023 </v>
   <v>       0.00432821       0.03337812       0.05973469 </v>
   <v>       0.02248277      -0.01480407       0.05028028 </v>
   <v>      -0.02705788      -0.09050645      -0.07743774 </v>
   <v>      -0.05524636       0.00514631       0.44636918 </v>
   <v>       0.08162248       0.00354606       0.61846589 </v>
   <v>       0.01914508      -0.00280315       0.23608236 </v>
   <v>       0.00200068      -0.03616853       0.07115860 </v>
   <v>       0.02834645       0.01651362       0.05123908 </v>
   <v>      -0.03000287       0.08010113      -0.07723822 </v>
   <v>      -0.01159149      -0.01329737       0.02257611 </v>
   <v>       0.00201233       0.00050744       0.03445460 </v>
   <v>       0.00000346      -0.00411382       0.01431272 </v>
   <v>      -0.01551847      -0.00820127      -0.16280455 </v>
   <v>      -0.03882032       0.01145086      -0.30994365 </v>
   <v>       0.04000902       0.00515954      -0.29154146 </v>
   <v>       0.00363885       0.01281044      -0.15427536 </v>
   <v>      -0.03049292      -0.00989207      -0.31937431 </v>
   <v>       0.02186262      -0.01038376      -0.26306221 </v>
  </varray>
  <varray name="stress" >
   <v>      -4.57898104      -0.01507691      -0.04639601 </v>
   <v>      -0.01507730      -4.54571387      -0.09752597 </v>
   <v>      -0.04639632      -0.09752595      -4.35558534 </v>
  </varray>
  <energy>
   <i name="e_fr_energy">   -108.17468536 </i>
   <i name="e_wo_entrp">   -108.17277888 </i>
   <i name="e_0_energy">     -0.00762592 </i>
  </energy>
  <time name="totalsc">  456.92  459.99</time>
  <eigenvalues>
   <array>
    <dimension dim="1">band</dimension>
    <dimension dim="2">kpoint</dimension>
    <dimension dim="3">spin</dimension>
    <field>eigene</field>
    <field>occ</field>
    <set>
     <set comment="spin 1">
      <set comment="kpoint 1">
       <r>   -8.8206    1.0000 </r>
       <r>   -7.2742    1.0000 </r>
       <r>   -6.9962    1.0000 </r>
       <r>   -6.9900    1.0000 </r>
       <r>   -6.0121    1.0000 </r>
       <r>   -6.0059    1.0000 </r>
       <r>   -5.7595    1.0000 </r>
       <r>   -5.7527    1.0000 </r>
       <r>   -5.5588    1.0000 </r>
       <r>   -5.3798    1.0000 </r>
       <r>   -5.2466    1.0000 </r>
       <r>   -5.2400    1.0000 </r>
       <r>   -5.0277    1.0000 </r>
       <r>   -5.0255    1.0000 </r>
       <r>   -4.9274    1.0000 </r>
       <r>   -4.8457    1.0000 </r>
       <r>   -4.6278    1.0000 </r>
       <r>   -4.6016    1.0000 </r>
       <r>   -4.5918    1.0000 </r>
       <r>   -4.5714    1.0000 </r>
       <r>   -4.5640    1.0000 </r>
       <r>   -4.5181    1.0000 </r>
       <r>   -4.4479    1.0000 </r>
       <r>   -4.3887    1.0000 </r>
       <r>   -4.3873    1.0000 </r>
       <r>   -4.3259    1.0000 </r>
       <r>   -4.3125    1.0000 </r>
       <r>   -4.3084    1.0000 </r>
       <r>   -4.2739    1.0000 </r>
       <r>   -4.2688    1.0000 </r>
       <r>   -4.2627    1.0000 </r>
       <r>   -4.2523    1.0000 </r>
       <r>   -4.2451    1.0000 </r>
       <r>   -4.1773    1.0000 </r>
       <r>   -4.1717    1.0000 </r>
       <r>   -4.1687    1.0000 </r>
       <r>   -4.1628    1.0000 </r>
       <r>   -4.1535    1.0000 </r>
       <r>   -4.0731    1.0000 </r>
       <r>   -4.0693    1.0000 </r>
       <r>   -4.0216    1.0000 </r>
       <r>   -4.0052    1.0000 </r>
       <r>   -3.9807    1.0000 </r>
       <r>   -3.9742    1.0000 </r>
       <r>   -3.8873    1.0000 </r>
       <r>   -3.7765    1.0000 </r>
       <r>   -3.7732    1.0000 </r>
       <r>   -3.7628    1.0000 </r>
       <r>   -3.7570    1.0000 </r>
       <r>   -3.7242    1.0000 </r>
       <r>   -3.6971    1.0000 </r>
       <r>   -3.6758    1.0000 </r>
       <r>   -3.6693    1.0000 </r>
       <r>   -3.6672    1.0000 </r>
       <r>   -3.6253    1.0000 </r>
       <r>   -3.5588    1.0000 </r>
       <r>   -3.5573    1.0000 </r>
       <r>   -3.5376    1.0000 </r>
       <r>   -3.4967    1.0000 </r>
       <r>   -3.4932    1.0000 </r>
       <r>   -3.4899    1.0000 </r>
       <r>   -3.4671    1.0000 </r>
       <r>   -3.4454    1.0000 </r>
       <r>   -3.4398    1.0000 </r>
       <r>   -3.4366    1.0000 </r>
       <r>   -3.4207    1.0000 </r>
       <r>   -3.4134    1.0000 </r>
       <r>   -3.4084    1.0000 </r>
       <r>   -3.3574    1.0000 </r>
       <r>   -3.3545    1.0000 </r>
       <r>   -3.3494    1.0000 </r>
       <r>   -3.2525    1.0000 </r>
       <r>   -3.2431    1.0000 </r>
       <r>   -3.2326    1.0000 </r>
       <r>   -3.2240    1.0000 </r>
       <r>   -3.1972    1.0000 </r>
       <r>   -3.1837    1.0000 </r>
       <r>   -3.1785    1.0000 </r>
       <r>   -3.1438    1.0000 </r>
       <r>   -3.1388    1.0000 </r>
       <r>   -3.1296    1.0000 </r>
       <r>   -3.1215    1.0000 </r>
       <r>   -3.1165    1.0000 </r>
       <r>   -3.1114    1.0000 </r>
       <r>   -3.0942    1.0000 </r>
       <r>   -3.0910    1.0000 </r>
       <r>   -3.0859    1.0000 </r>
       <r>   -3.0807    1.0000 </r>
       <r>   -3.0774    1.0000 </r>
       <r>   -3.0674    1.0000 </r>
       <r>   -3.0587    1.0000 </r>
       <r>   -3.0495    1.0000 </r>
       <r>   -3.0404    1.0000 </r>
       <r>   -3.0272    1.0000 </r>
       <r>   -3.0112    1.0000 </r>
       <r>   -3.0074    1.0000 </r>
       <r>   -2.9617    1.0000 </r>
       <r>   -2.9577    1.0000 </r>
       <r>   -2.9123    1.0000 </r>
       <r>   -2.8588    1.0000 </r>
       <r>   -2.8571    1.0000 </r>
       <r>   -2.8258    1.0000 </r>
       <r>   -2.8206    1.0000 </r>
       <r>   -2.7156    1.0000 </r>
       <r>   -2.7046    1.0000 </r>
       <r>   -2.6983    1.0000 </r>
       <r>   -2.6954    1.0000 </r>
       <r>   -2.6660    1.0000 </r>
       <r>   -2.6595    1.0000 </r>
       <r>   -2.6481    1.0000 </r>
       <r>   -2.6427    1.0000 </r>
       <r>   -2.6282    1.0000 </r>
       <r>   -2.6012    1.0000 </r>
       <r>   -2.5987    1.0000 </r>
       <r>   -2.5964    1.0000 </r>
       <r>   -2.5919    1.0000 </r>
       <r>   -2.5711    1.0000 </r>
       <r>   -2.5649    1.0000 </r>
       <r>   -2.5609    1.0000 </r>
       <r>   -2.5576    1.0000 </r>
       <r>   -2.5436    1.0000 </r>
       <r>   -2.5392    1.0000 </r>
       <r>   -2.5174    1.0000 </r>
       <r>   -2.4974    1.0000 </r>
       <r>   -2.4913    1.0000 </r>
       <r>   -2.4887    1.0000 </r>
       <r>   -2.4842    1.0000 </r>
       <r>   -2.4704    1.0000 </r>
       <r>   -2.4692    1.0000 </r>
       <r>   -2.4630    1.0000 </r>
       <r>   -2.4617    1.0000 </r>
       <r>   -2.4574    1.0000 </r>
       <r>   -2.4533    1.0000 </r>
       <r>   -2.4518    1.0000 </r>
       <r>   -2.4393    1.0000 </r>
       <r>   -2.4363    1.0000 </r>
       <r>   -2.3903    1.0000 </r>
       <r>   -2.3733    1.0000 </r>
       <r>   -2.3399    1.0000 </r>
       <r>   -2.3152    1.0000 </r>
       <r>   -2.3063    1.0000 </r>
       <r>   -2.3008    1.0000 </r>
       <r>   -2.2846    1.0000 </r>
       <r>   -2.2737    1.0000 </r>
       <r>   -2.2708    1.0000 </r>
       <r>   -2.2691    1.0000 </r>
       <r>   -2.2614    1.0000 </r>
       <r>   -2.2595    1.0000 </r>
       <r>   -2.2575    1.0000 </r>
       <r>   -2.2525    1.0000 </r>
       <r>   -2.2232    1.0000 </r>
       <r>   -2.2214    1.0000 </r>
       <r>   -2.1736    1.0000 </r>
       <r>   -2.1419    1.0000 </r>
       <r>   -2.1398    1.0000 </r>
       <r>   -2.1312    1.0000 </r>
       <r>   -2.1294    1.0000 </r>
       <r>   -2.1197    1.0000 </r>
       <r>   -2.1158    1.0000 </r>
       <r>   -2.1054    1.0000 </r>
       <r>   -2.0992    1.0000 </r>
       <r>   -2.0971    1.0000 </r>
       <r>   -2.0954    1.0000 </r>
       <r>   -2.0941    1.0000 </r>
       <r>   -2.0929    1.0000 </r>
       <r>   -2.0843    1.0000 </r>
       <r>   -2.0811    1.0000 </r>
       <r>   -2.0788    1.0000 </r>
       <r>   -2.0552    1.0000 </r>
       <r>   -2.0538    1.0000 </r>
       <r>   -2.0174    1.0000 </r>
       <r>   -2.0148    1.0000 </r>
       <r>   -2.0133    1.0000 </r>
       <r>   -2.0088    1.0000 </r>
       <r>   -2.0058    1.0000 </r>
       <r>   -1.9679    1.0000 </r>
       <r>   -1.9327    1.0000 </r>
       <r>   -1.9315    1.0000 </r>
       <r>   -1.9304    1.0000 </r>
       <r>   -1.9276    1.0000 </r>
       <r>   -1.9205    1.0000 </r>
       <r>   -1.9149    1.0000 </r>
       <r>   -1.9138    1.0000 </r>
       <r>   -1.8999    1.0000 </r>
       <r>   -1.8799    1.0000 </r>
       <r>   -1.8696    1.0000 </r>
       <r>   -1.8692    1.0000 </r>
       <r>   -1.8674    1.0000 </r>
       <r>   -1.8602    1.0000 </r>
       <r>   -1.8571    1.0000 </r>
       <r>   -1.8526    1.0000 </r>
       <r>   -1.8073    1.0000 </r>
       <r>   -1.3867    1.0000 </r>
       <r>   -1.3834    1.0000 </r>
       <r>   -1.1278    1.0000 </r>
       <r>   -1.1263    1.0000 </r>
       <r>   -1.0484    0.9999 </r>
       <r>   -0.7756    0.9965 </r>
       <r>   -0.6622    1.0318 </r>
       <r>   -0.4347    0.6319 </r>
       <r>   -0.4307    0.6110 </r>
       <r>   -0.1618   -0.0342 </r>
       <r>   -0.1560   -0.0314 </r>
       <r>    0.6992    0.0000 </r>
       <r>    0.7759    0.0000 </r>
       <r>    0.8855    0.0000 </r>
       <r>    1.2641    0.0000 </r>
       <r>    1.2706    0.0000 </r>
       <r>    1.7088    0.0000 </r>
       <r>    1.7105    0.0000 </r>
       <r>    1.8091    0.0000 </r>
       <r>    1.8210    0.0000 </r>
       <r>    2.5226    0.0000 </r>
       <r>    3.0247    0.0000 </r>
       <r>    3.0835    0.0000 </r>
       <r>    3.0883    0.0000 </r>
       <r>    3.2224    0.0000 </r>
       <r>    3.3956    0.0000 </r>
       <r>    3.4005    0.0000 </r>
       <r>    3.5689    0.0000 </r>
       <r>    3.6108    0.0000 </r>
       <r>    3.6163    0.0000 </r>
       <r>    3.7444    0.0000 </r>
       <r>    3.7467    0.0000 </r>
       <r>    3.9929    0.0000 </r>
       <r>    4.4526    0.0000 </r>
       <r>    4.4592    0.0000 </r>
       <r>    4.4591    0.0000 </r>
       <r>    4.4637    0.0000 </r>
       <r>    4.7969    0.0000 </r>
       <r>    4.7999    0.0000 </r>
       <r>    4.8286    0.0000 </r>
       <r>    5.0531    0.0000 </r>
       <r>    5.0578    0.0000 </r>
       <r>    5.2633    0.0000 </r>
       <r>    5.2647    0.0000 </r>
       <r>    5.4223    0.0000 </r>
       <r>    5.4379    0.0000 </r>
       <r>    5.4796    0.0000 </r>
       <r>    5.7833    0.0000 </r>
      </set>
      <set comment="kpoint 2">
       <r>   -8.4961    1.0000 </r>
       <r>   -7.8679    1.0000 </r>
       <r>   -6.9745    1.0000 </r>
       <r>   -6.7077    1.0000 </r>
       <r>   -6.4226    1.0000 </r>
       <r>   -6.1869    1.0000 </r>
       <r>   -5.7693    1.0000 </r>
       <r>   -5.5024    1.0000 </r>
       <r>   -5.3781    1.0000 </r>
       <r>   -5.2351    1.0000 </r>
       <r>   -5.1404    1.0000 </r>
       <r>   -5.0698    1.0000 </r>
       <r>   -5.0431    1.0000 </r>
       <r>   -5.0326    1.0000 </r>
       <r>   -4.7896    1.0000 </r>
       <r>   -4.7625    1.0000 </r>
       <r>   -4.7564    1.0000 </r>
       <r>   -4.6997    1.0000 </r>
       <r>   -4.6921    1.0000 </r>
       <r>   -4.6534    1.0000 </r>
       <r>   -4.5395    1.0000 </r>
       <r>   -4.4960    1.0000 </r>
       <r>   -4.4819    1.0000 </r>
       <r>   -4.4511    1.0000 </r>
       <r>   -4.4090    1.0000 </r>
       <r>   -4.3851    1.0000 </r>
       <r>   -4.3662    1.0000 </r>
       <r>   -4.3540    1.0000 </r>
       <r>   -4.3477    1.0000 </r>
       <r>   -4.3202    1.0000 </r>
       <r>   -4.2955    1.0000 </r>
       <r>   -4.2857    1.0000 </r>
       <r>   -4.2042    1.0000 </r>
       <r>   -4.1947    1.0000 </r>
       <r>   -4.1173    1.0000 </r>
       <r>   -4.1057    1.0000 </r>
       <r>   -4.0817    1.0000 </r>
       <r>   -4.0772    1.0000 </r>
       <r>   -4.0177    1.0000 </r>
       <r>   -4.0106    1.0000 </r>
       <r>   -3.9924    1.0000 </r>
       <r>   -3.9672    1.0000 </r>
       <r>   -3.9493    1.0000 </r>
       <r>   -3.8925    1.0000 </r>
       <r>   -3.8891    1.0000 </r>
       <r>   -3.8787    1.0000 </r>
       <r>   -3.8271    1.0000 </r>
       <r>   -3.7876    1.0000 </r>
       <r>   -3.7810    1.0000 </r>
       <r>   -3.7575    1.0000 </r>
       <r>   -3.7556    1.0000 </r>
       <r>   -3.6930    1.0000 </r>
       <r>   -3.6590    1.0000 </r>
       <r>   -3.6386    1.0000 </r>
       <r>   -3.6235    1.0000 </r>
       <r>   -3.6107    1.0000 </r>
       <r>   -3.5944    1.0000 </r>
       <r>   -3.5815    1.0000 </r>
       <r>   -3.5454    1.0000 </r>
       <r>   -3.5357    1.0000 </r>
       <r>   -3.5163    1.0000 </r>
       <r>   -3.5119    1.0000 </r>
       <r>   -3.4980    1.0000 </r>
       <r>   -3.4972    1.0000 </r>
       <r>   -3.4750    1.0000 </r>
       <r>   -3.4684    1.0000 </r>
       <r>   -3.4492    1.0000 </r>
       <r>   -3.3834    1.0000 </r>
       <r>   -3.3429    1.0000 </r>
       <r>   -3.3164    1.0000 </r>
       <r>   -3.2990    1.0000 </r>
       <r>   -3.2969    1.0000 </r>
       <r>   -3.2817    1.0000 </r>
       <r>   -3.2643    1.0000 </r>
       <r>   -3.2205    1.0000 </r>
       <r>   -3.1961    1.0000 </r>
       <r>   -3.1740    1.0000 </r>
       <r>   -3.1706    1.0000 </r>
       <r>   -3.1614    1.0000 </r>
       <r>   -3.1561    1.0000 </r>
       <r>   -3.1495    1.0000 </r>
       <r>   -3.1444    1.0000 </r>
       <r>   -3.1383    1.0000 </r>
       <r>   -3.1266    1.0000 </r>
       <r>   -3.1185    1.0000 </r>
       <r>   -3.1003    1.0000 </r>
       <r>   -3.0909    1.0000 </r>
       <r>   -3.0856    1.0000 </r>
       <r>   -3.0636    1.0000 </r>
       <r>   -3.0554    1.0000 </r>
       <r>   -3.0495    1.0000 </r>
       <r>   -3.0374    1.0000 </r>
       <r>   -3.0220    1.0000 </r>
       <r>   -2.9887    1.0000 </r>
       <r>   -2.9799    1.0000 </r>
       <r>   -2.9514    1.0000 </r>
       <r>   -2.9302    1.0000 </r>
       <r>   -2.9224    1.0000 </r>
       <r>   -2.8677    1.0000 </r>
       <r>   -2.8585    1.0000 </r>
       <r>   -2.8184    1.0000 </r>
       <r>   -2.8141    1.0000 </r>
       <r>   -2.8028    1.0000 </r>
       <r>   -2.8003    1.0000 </r>
       <r>   -2.7926    1.0000 </r>
       <r>   -2.7911    1.0000 </r>
       <r>   -2.7719    1.0000 </r>
       <r>   -2.7670    1.0000 </r>
       <r>   -2.7569    1.0000 </r>
       <r>   -2.7361    1.0000 </r>
       <r>   -2.7208    1.0000 </r>
       <r>   -2.7088    1.0000 </r>
       <r>   -2.6841    1.0000 </r>
       <r>   -2.6793    1.0000 </r>
       <r>   -2.6584    1.0000 </r>
       <r>   -2.6532    1.0000 </r>
       <r>   -2.6496    1.0000 </r>
       <r>   -2.6458    1.0000 </r>
       <r>   -2.6274    1.0000 </r>
       <r>   -2.6148    1.0000 </r>
       <r>   -2.6000    1.0000 </r>
       <r>   -2.5953    1.0000 </r>
       <r>   -2.5700    1.0000 </r>
       <r>   -2.5663    1.0000 </r>
       <r>   -2.5572    1.0000 </r>
       <r>   -2.5004    1.0000 </r>
       <r>   -2.4738    1.0000 </r>
       <r>   -2.4514    1.0000 </r>
       <r>   -2.4435    1.0000 </r>
       <r>   -2.4414    1.0000 </r>
       <r>   -2.4273    1.0000 </r>
       <r>   -2.4211    1.0000 </r>
       <r>   -2.3995    1.0000 </r>
       <r>   -2.3878    1.0000 </r>
       <r>   -2.3834    1.0000 </r>
       <r>   -2.3806    1.0000 </r>
       <r>   -2.3693    1.0000 </r>
       <r>   -2.3643    1.0000 </r>
       <r>   -2.3497    1.0000 </r>
       <r>   -2.3406    1.0000 </r>
       <r>   -2.3318    1.0000 </r>
       <r>   -2.3301    1.0000 </r>
       <r>   -2.3216    1.0000 </r>
       <r>   -2.3178    1.0000 </r>
       <r>   -2.2998    1.0000 </r>
       <r>   -2.2925    1.0000 </r>
       <r>   -2.2753    1.0000 </r>
       <r>   -2.2675    1.0000 </r>
       <r>   -2.2368    1.0000 </r>
       <r>   -2.2316    1.0000 </r>
       <r>   -2.2265    1.0000 </r>
       <r>   -2.1946    1.0000 </r>
       <r>   -2.1773    1.0000 </r>
       <r>   -2.1732    1.0000 </r>
       <r>   -2.1613    1.0000 </r>
       <r>   -2.1590    1.0000 </r>
       <r>   -2.1255    1.0000 </r>
       <r>   -2.1189    1.0000 </r>
       <r>   -2.0994    1.0000 </r>
       <r>   -2.0944    1.0000 </r>
       <r>   -2.0936    1.0000 </r>
       <r>   -2.0856    1.0000 </r>
       <r>   -2.0772    1.0000 </r>
       <r>   -2.0743    1.0000 </r>
       <r>   -2.0696    1.0000 </r>
       <r>   -2.0575    1.0000 </r>
       <r>   -2.0369    1.0000 </r>
       <r>   -2.0354    1.0000 </r>
       <r>   -2.0343    1.0000 </r>
       <r>   -2.0321    1.0000 </r>
       <r>   -2.0219    1.0000 </r>
       <r>   -2.0120    1.0000 </r>
       <r>   -2.0085    1.0000 </r>
       <r>   -2.0034    1.0000 </r>
       <r>   -1.9889    1.0000 </r>
       <r>   -1.9687    1.0000 </r>
       <r>   -1.9498    1.0000 </r>
       <r>   -1.9418    1.0000 </r>
       <r>   -1.9289    1.0000 </r>
       <r>   -1.9249    1.0000 </r>
       <r>   -1.9162    1.0000 </r>
       <r>   -1.8864    1.0000 </r>
       <r>   -1.8747    1.0000 </r>
       <r>   -1.8721    1.0000 </r>
       <r>   -1.8567    1.0000 </r>
       <r>   -1.8339    1.0000 </r>
       <r>   -1.7803    1.0000 </r>
       <r>   -1.7425    1.0000 </r>
       <r>   -1.7181    1.0000 </r>
       <r>   -1.6588    1.0000 </r>
       <r>   -1.6184    1.0000 </r>
       <r>   -1.5521    1.0000 </r>
       <r>   -1.4825    1.0000 </r>
       <r>   -1.1294    1.0000 </r>
       <r>   -1.0394    0.9999 </r>
       <r>   -0.9057    0.9978 </r>
       <r>   -0.7341    1.0034 </r>
       <r>   -0.3112    0.0661 </r>
       <r>   -0.1278   -0.0182 </r>
       <r>   -0.1178   -0.0141 </r>
       <r>   -0.0386    0.0038 </r>
       <r>    0.0629    0.0030 </r>
       <r>    0.2053    0.0002 </r>
       <r>    0.4001    0.0000 </r>
       <r>    0.6369    0.0000 </r>
       <r>    0.8357    0.0000 </r>
       <r>    1.2123    0.0000 </r>
       <r>    1.3487    0.0000 </r>
       <r>    1.6269    0.0000 </r>
       <r>    1.6370    0.0000 </r>
       <r>    2.1267    0.0000 </r>
       <r>    2.2211    0.0000 </r>
       <r>    2.2596    0.0000 </r>
       <r>    2.3110    0.0000 </r>
       <r>    2.3237    0.0000 </r>
       <r>    2.6498    0.0000 </r>
       <r>    2.7718    0.0000 </r>
       <r>    2.8491    0.0000 </r>
       <r>    2.8531    0.0000 </r>
       <r>    3.3038    0.0000 </r>
       <r>    3.3095    0.0000 </r>
       <r>    3.4993    0.0000 </r>
       <r>    3.7140    0.0000 </r>
       <r>    3.7436    0.0000 </r>
       <r>    3.7669    0.0000 </r>
       <r>    3.9553    0.0000 </r>
       <r>    4.0363    0.0000 </r>
       <r>    4.3035    0.0000 </r>
       <r>    4.4694    0.0000 </r>
       <r>    4.5832    0.0000 </r>
       <r>    4.5990    0.0000 </r>
       <r>    4.7828    0.0000 </r>
       <r>    4.8958    0.0000 </r>
       <r>    4.9279    0.0000 </r>
       <r>    5.0797    0.0000 </r>
       <r>    5.1231    0.0000 </r>
       <r>    5.1499    0.0000 </r>
       <r>    5.3383    0.0000 </r>
       <r>    5.4270    0.0000 </r>
       <r>    5.5477    0.0000 </r>
      </set>
      <set comment="kpoint 3">
       <r>   -8.4961    1.0000 </r>
       <r>   -7.8679    1.0000 </r>
       <r>   -6.9745    1.0000 </r>
       <r>   -6.7078    1.0000 </r>
       <r>   -6.4226    1.0000 </r>
       <r>   -6.1869    1.0000 </r>
       <r>   -5.7693    1.0000 </r>
       <r>   -5.5024    1.0000 </r>
       <r>   -5.3781    1.0000 </r>
       <r>   -5.2352    1.0000 </r>
       <r>   -5.1404    1.0000 </r>
       <r>   -5.0698    1.0000 </r>
       <r>   -5.0434    1.0000 </r>
       <r>   -5.0323    1.0000 </r>
       <r>   -4.7896    1.0000 </r>
       <r>   -4.7623    1.0000 </r>
       <r>   -4.7566    1.0000 </r>
       <r>   -4.6995    1.0000 </r>
       <r>   -4.6919    1.0000 </r>
       <r>   -4.6540    1.0000 </r>
       <r>   -4.5394    1.0000 </r>
       <r>   -4.4959    1.0000 </r>
       <r>   -4.4818    1.0000 </r>
       <r>   -4.4511    1.0000 </r>
       <r>   -4.4090    1.0000 </r>
       <r>   -4.3854    1.0000 </r>
       <r>   -4.3662    1.0000 </r>
       <r>   -4.3541    1.0000 </r>
       <r>   -4.3473    1.0000 </r>
       <r>   -4.3204    1.0000 </r>
       <r>   -4.2957    1.0000 </r>
       <r>   -4.2854    1.0000 </r>
       <r>   -4.2047    1.0000 </r>
       <r>   -4.1942    1.0000 </r>
       <r>   -4.1174    1.0000 </r>
       <r>   -4.1059    1.0000 </r>
       <r>   -4.0816    1.0000 </r>
       <r>   -4.0771    1.0000 </r>
       <r>   -4.0181    1.0000 </r>
       <r>   -4.0109    1.0000 </r>
       <r>   -3.9922    1.0000 </r>
       <r>   -3.9666    1.0000 </r>
       <r>   -3.9495    1.0000 </r>
       <r>   -3.8925    1.0000 </r>
       <r>   -3.8890    1.0000 </r>
       <r>   -3.8787    1.0000 </r>
       <r>   -3.8272    1.0000 </r>
       <r>   -3.7878    1.0000 </r>
       <r>   -3.7811    1.0000 </r>
       <r>   -3.7571    1.0000 </r>
       <r>   -3.7555    1.0000 </r>
       <r>   -3.6933    1.0000 </r>
       <r>   -3.6595    1.0000 </r>
       <r>   -3.6384    1.0000 </r>
       <r>   -3.6234    1.0000 </r>
       <r>   -3.6108    1.0000 </r>
       <r>   -3.5941    1.0000 </r>
       <r>   -3.5814    1.0000 </r>
       <r>   -3.5457    1.0000 </r>
       <r>   -3.5358    1.0000 </r>
       <r>   -3.5161    1.0000 </r>
       <r>   -3.5113    1.0000 </r>
       <r>   -3.4985    1.0000 </r>
       <r>   -3.4973    1.0000 </r>
       <r>   -3.4750    1.0000 </r>
       <r>   -3.4686    1.0000 </r>
       <r>   -3.4490    1.0000 </r>
       <r>   -3.3831    1.0000 </r>
       <r>   -3.3429    1.0000 </r>
       <r>   -3.3162    1.0000 </r>
       <r>   -3.2991    1.0000 </r>
       <r>   -3.2969    1.0000 </r>
       <r>   -3.2817    1.0000 </r>
       <r>   -3.2641    1.0000 </r>
       <r>   -3.2209    1.0000 </r>
       <r>   -3.1960    1.0000 </r>
       <r>   -3.1744    1.0000 </r>
       <r>   -3.1703    1.0000 </r>
       <r>   -3.1604    1.0000 </r>
       <r>   -3.1565    1.0000 </r>
       <r>   -3.1505    1.0000 </r>
       <r>   -3.1451    1.0000 </r>
       <r>   -3.1395    1.0000 </r>
       <r>   -3.1252    1.0000 </r>
       <r>   -3.1180    1.0000 </r>
       <r>   -3.0998    1.0000 </r>
       <r>   -3.0905    1.0000 </r>
       <r>   -3.0860    1.0000 </r>
       <r>   -3.0641    1.0000 </r>
       <r>   -3.0549    1.0000 </r>
       <r>   -3.0490    1.0000 </r>
       <r>   -3.0375    1.0000 </r>
       <r>   -3.0224    1.0000 </r>
       <r>   -2.9890    1.0000 </r>
       <r>   -2.9800    1.0000 </r>
       <r>   -2.9512    1.0000 </r>
       <r>   -2.9303    1.0000 </r>
       <r>   -2.9221    1.0000 </r>
       <r>   -2.8678    1.0000 </r>
       <r>   -2.8587    1.0000 </r>
       <r>   -2.8187    1.0000 </r>
       <r>   -2.8143    1.0000 </r>
       <r>   -2.8015    1.0000 </r>
       <r>   -2.8002    1.0000 </r>
       <r>   -2.7926    1.0000 </r>
       <r>   -2.7917    1.0000 </r>
       <r>   -2.7724    1.0000 </r>
       <r>   -2.7655    1.0000 </r>
       <r>   -2.7566    1.0000 </r>
       <r>   -2.7364    1.0000 </r>
       <r>   -2.7215    1.0000 </r>
       <r>   -2.7087    1.0000 </r>
       <r>   -2.6847    1.0000 </r>
       <r>   -2.6795    1.0000 </r>
       <r>   -2.6582    1.0000 </r>
       <r>   -2.6534    1.0000 </r>
       <r>   -2.6500    1.0000 </r>
       <r>   -2.6450    1.0000 </r>
       <r>   -2.6279    1.0000 </r>
       <r>   -2.6147    1.0000 </r>
       <r>   -2.6002    1.0000 </r>
       <r>   -2.5945    1.0000 </r>
       <r>   -2.5703    1.0000 </r>
       <r>   -2.5659    1.0000 </r>
       <r>   -2.5573    1.0000 </r>
       <r>   -2.5005    1.0000 </r>
       <r>   -2.4740    1.0000 </r>
       <r>   -2.4516    1.0000 </r>
       <r>   -2.4436    1.0000 </r>
       <r>   -2.4413    1.0000 </r>
       <r>   -2.4264    1.0000 </r>
       <r>   -2.4208    1.0000 </r>
       <r>   -2.4002    1.0000 </r>
       <r>   -2.3868    1.0000 </r>
       <r>   -2.3826    1.0000 </r>
       <r>   -2.3803    1.0000 </r>
       <r>   -2.3698    1.0000 </r>
       <r>   -2.3650    1.0000 </r>
       <r>   -2.3512    1.0000 </r>
       <r>   -2.3407    1.0000 </r>
       <r>   -2.3313    1.0000 </r>
       <r>   -2.3294    1.0000 </r>
       <r>   -2.3221    1.0000 </r>
       <r>   -2.3185    1.0000 </r>
       <r>   -2.2998    1.0000 </r>
       <r>   -2.2920    1.0000 </r>
       <r>   -2.2752    1.0000 </r>
       <r>   -2.2678    1.0000 </r>
       <r>   -2.2363    1.0000 </r>
       <r>   -2.2312    1.0000 </r>
       <r>   -2.2267    1.0000 </r>
       <r>   -2.1950    1.0000 </r>
       <r>   -2.1778    1.0000 </r>
       <r>   -2.1728    1.0000 </r>
       <r>   -2.1612    1.0000 </r>
       <r>   -2.1589    1.0000 </r>
       <r>   -2.1258    1.0000 </r>
       <r>   -2.1188    1.0000 </r>
       <r>   -2.0993    1.0000 </r>
       <r>   -2.0945    1.0000 </r>
       <r>   -2.0936    1.0000 </r>
       <r>   -2.0856    1.0000 </r>
       <r>   -2.0774    1.0000 </r>
       <r>   -2.0741    1.0000 </r>
       <r>   -2.0693    1.0000 </r>
       <r>   -2.0580    1.0000 </r>
       <r>   -2.0365    1.0000 </r>
       <r>   -2.0356    1.0000 </r>
       <r>   -2.0341    1.0000 </r>
       <r>   -2.0321    1.0000 </r>
       <r>   -2.0219    1.0000 </r>
       <r>   -2.0119    1.0000 </r>
       <r>   -2.0084    1.0000 </r>
       <r>   -2.0037    1.0000 </r>
       <r>   -1.9887    1.0000 </r>
       <r>   -1.9687    1.0000 </r>
       <r>   -1.9499    1.0000 </r>
       <r>   -1.9421    1.0000 </r>
       <r>   -1.9285    1.0000 </r>
       <r>   -1.9249    1.0000 </r>
       <r>   -1.9165    1.0000 </r>
       <r>   -1.8864    1.0000 </r>
       <r>   -1.8745    1.0000 </r>
       <r>   -1.8723    1.0000 </r>
       <r>   -1.8569    1.0000 </r>
       <r>   -1.8329    1.0000 </r>
       <r>   -1.7808    1.0000 </r>
       <r>   -1.7425    1.0000 </r>
       <r>   -1.7180    1.0000 </r>
       <r>   -1.6586    1.0000 </r>
       <r>   -1.6184    1.0000 </r>
       <r>   -1.5521    1.0000 </r>
       <r>   -1.4825    1.0000 </r>
       <r>   -1.1294    1.0000 </r>
       <r>   -1.0394    0.9999 </r>
       <r>   -0.9057    0.9978 </r>
       <r>   -0.7341    1.0034 </r>
       <r>   -0.3112    0.0660 </r>
       <r>   -0.1273   -0.0180 </r>
       <r>   -0.1181   -0.0142 </r>
       <r>   -0.0389    0.0038 </r>
       <r>    0.0628    0.0030 </r>
       <r>    0.2053    0.0002 </r>
       <r>    0.4001    0.0000 </r>
       <r>    0.6369    0.0000 </r>
       <r>    0.8357    0.0000 </r>
       <r>    1.2119    0.0000 </r>
       <r>    1.3487    0.0000 </r>
       <r>    1.6273    0.0000 </r>
       <r>    1.6371    0.0000 </r>
       <r>    2.1267    0.0000 </r>
       <r>    2.2214    0.0000 </r>
       <r>    2.2597    0.0000 </r>
       <r>    2.3112    0.0000 </r>
       <r>    2.3231    0.0000 </r>
       <r>    2.6517    0.0000 </r>
       <r>    2.7692    0.0000 </r>
       <r>    2.8483    0.0000 </r>
       <r>    2.8535    0.0000 </r>
       <r>    3.3031    0.0000 </r>
       <r>    3.3105    0.0000 </r>
       <r>    3.4993    0.0000 </r>
       <r>    3.7142    0.0000 </r>
       <r>    3.7439    0.0000 </r>
       <r>    3.7666    0.0000 </r>
       <r>    3.9560    0.0000 </r>
       <r>    4.0361    0.0000 </r>
       <r>    4.3035    0.0000 </r>
       <r>    4.4694    0.0000 </r>
       <r>    4.5829    0.0000 </r>
       <r>    4.5988    0.0000 </r>
       <r>    4.7828    0.0000 </r>
       <r>    4.8953    0.0000 </r>
       <r>    4.9279    0.0000 </r>
       <r>    5.0795    0.0000 </r>
       <r>    5.1241    0.0000 </r>
       <r>    5.1503    0.0000 </r>
       <r>    5.3387    0.0000 </r>
       <r>    5.4261    0.0000 </r>
       <r>    5.6186    0.0000 </r>
      </set>
      <set comment="kpoint 4">
       <r>   -8.8206    1.0000 </r>
       <r>   -7.2742    1.0000 </r>
       <r>   -6.9955    1.0000 </r>
       <r>   -6.9907    1.0000 </r>
       <r>   -6.0115    1.0000 </r>
       <r>   -6.0064    1.0000 </r>
       <r>   -5.7604    1.0000 </r>
       <r>   -5.7518    1.0000 </r>
       <r>   -5.5587    1.0000 </r>
       <r>   -5.3799    1.0000 </r>
       <r>   -5.2472    1.0000 </r>
       <r>   -5.2393    1.0000 </r>
       <r>   -5.0273    1.0000 </r>
       <r>   -5.0258    1.0000 </r>
       <r>   -4.9274    1.0000 </r>
       <r>   -4.8456    1.0000 </r>
       <r>   -4.6278    1.0000 </r>
       <r>   -4.6016    1.0000 </r>
       <r>   -4.5917    1.0000 </r>
       <r>   -4.5713    1.0000 </r>
       <r>   -4.5641    1.0000 </r>
       <r>   -4.5182    1.0000 </r>
       <r>   -4.4479    1.0000 </r>
       <r>   -4.3889    1.0000 </r>
       <r>   -4.3873    1.0000 </r>
       <r>   -4.3259    1.0000 </r>
       <r>   -4.3124    1.0000 </r>
       <r>   -4.3087    1.0000 </r>
       <r>   -4.2733    1.0000 </r>
       <r>   -4.2680    1.0000 </r>
       <r>   -4.2627    1.0000 </r>
       <r>   -4.2524    1.0000 </r>
       <r>   -4.2457    1.0000 </r>
       <r>   -4.1780    1.0000 </r>
       <r>   -4.1719    1.0000 </r>
       <r>   -4.1684    1.0000 </r>
       <r>   -4.1625    1.0000 </r>
       <r>   -4.1536    1.0000 </r>
       <r>   -4.0732    1.0000 </r>
       <r>   -4.0695    1.0000 </r>
       <r>   -4.0213    1.0000 </r>
       <r>   -4.0053    1.0000 </r>
       <r>   -3.9807    1.0000 </r>
       <r>   -3.9743    1.0000 </r>
       <r>   -3.8872    1.0000 </r>
       <r>   -3.7761    1.0000 </r>
       <r>   -3.7736    1.0000 </r>
       <r>   -3.7632    1.0000 </r>
       <r>   -3.7565    1.0000 </r>
       <r>   -3.7241    1.0000 </r>
       <r>   -3.6968    1.0000 </r>
       <r>   -3.6766    1.0000 </r>
       <r>   -3.6694    1.0000 </r>
       <r>   -3.6671    1.0000 </r>
       <r>   -3.6253    1.0000 </r>
       <r>   -3.5590    1.0000 </r>
       <r>   -3.5569    1.0000 </r>
       <r>   -3.5375    1.0000 </r>
       <r>   -3.4971    1.0000 </r>
       <r>   -3.4928    1.0000 </r>
       <r>   -3.4905    1.0000 </r>
       <r>   -3.4666    1.0000 </r>
       <r>   -3.4456    1.0000 </r>
       <r>   -3.4397    1.0000 </r>
       <r>   -3.4369    1.0000 </r>
       <r>   -3.4205    1.0000 </r>
       <r>   -3.4132    1.0000 </r>
       <r>   -3.4081    1.0000 </r>
       <r>   -3.3573    1.0000 </r>
       <r>   -3.3545    1.0000 </r>
       <r>   -3.3494    1.0000 </r>
       <r>   -3.2524    1.0000 </r>
       <r>   -3.2431    1.0000 </r>
       <r>   -3.2315    1.0000 </r>
       <r>   -3.2253    1.0000 </r>
       <r>   -3.1974    1.0000 </r>
       <r>   -3.1841    1.0000 </r>
       <r>   -3.1780    1.0000 </r>
       <r>   -3.1440    1.0000 </r>
       <r>   -3.1376    1.0000 </r>
       <r>   -3.1311    1.0000 </r>
       <r>   -3.1201    1.0000 </r>
       <r>   -3.1177    1.0000 </r>
       <r>   -3.1109    1.0000 </r>
       <r>   -3.0946    1.0000 </r>
       <r>   -3.0906    1.0000 </r>
       <r>   -3.0851    1.0000 </r>
       <r>   -3.0810    1.0000 </r>
       <r>   -3.0783    1.0000 </r>
       <r>   -3.0671    1.0000 </r>
       <r>   -3.0587    1.0000 </r>
       <r>   -3.0501    1.0000 </r>
       <r>   -3.0399    1.0000 </r>
       <r>   -3.0267    1.0000 </r>
       <r>   -3.0112    1.0000 </r>
       <r>   -3.0078    1.0000 </r>
       <r>   -2.9617    1.0000 </r>
       <r>   -2.9581    1.0000 </r>
       <r>   -2.9128    1.0000 </r>
       <r>   -2.8590    1.0000 </r>
       <r>   -2.8567    1.0000 </r>
       <r>   -2.8262    1.0000 </r>
       <r>   -2.8200    1.0000 </r>
       <r>   -2.7160    1.0000 </r>
       <r>   -2.7049    1.0000 </r>
       <r>   -2.6970    1.0000 </r>
       <r>   -2.6960    1.0000 </r>
       <r>   -2.6660    1.0000 </r>
       <r>   -2.6590    1.0000 </r>
       <r>   -2.6479    1.0000 </r>
       <r>   -2.6418    1.0000 </r>
       <r>   -2.6286    1.0000 </r>
       <r>   -2.6014    1.0000 </r>
       <r>   -2.5988    1.0000 </r>
       <r>   -2.5968    1.0000 </r>
       <r>   -2.5921    1.0000 </r>
       <r>   -2.5717    1.0000 </r>
       <r>   -2.5643    1.0000 </r>
       <r>   -2.5606    1.0000 </r>
       <r>   -2.5576    1.0000 </r>
       <r>   -2.5444    1.0000 </r>
       <r>   -2.5390    1.0000 </r>
       <r>   -2.5174    1.0000 </r>
       <r>   -2.4986    1.0000 </r>
       <r>   -2.4910    1.0000 </r>
       <r>   -2.4878    1.0000 </r>
       <r>   -2.4839    1.0000 </r>
       <r>   -2.4703    1.0000 </r>
       <r>   -2.4687    1.0000 </r>
       <r>   -2.4640    1.0000 </r>
       <r>   -2.4612    1.0000 </r>
       <r>   -2.4570    1.0000 </r>
       <r>   -2.4531    1.0000 </r>
       <r>   -2.4511    1.0000 </r>
       <r>   -2.4401    1.0000 </r>
       <r>   -2.4371    1.0000 </r>
       <r>   -2.3901    1.0000 </r>
       <r>   -2.3734    1.0000 </r>
       <r>   -2.3403    1.0000 </r>
       <r>   -2.3155    1.0000 </r>
       <r>   -2.3064    1.0000 </r>
       <r>   -2.3004    1.0000 </r>
       <r>   -2.2834    1.0000 </r>
       <r>   -2.2744    1.0000 </r>
       <r>   -2.2718    1.0000 </r>
       <r>   -2.2689    1.0000 </r>
       <r>   -2.2614    1.0000 </r>
       <r>   -2.2595    1.0000 </r>
       <r>   -2.2576    1.0000 </r>
       <r>   -2.2530    1.0000 </r>
       <r>   -2.2227    1.0000 </r>
       <r>   -2.2212    1.0000 </r>
       <r>   -2.1734    1.0000 </r>
       <r>   -2.1417    1.0000 </r>
       <r>   -2.1400    1.0000 </r>
       <r>   -2.1315    1.0000 </r>
       <r>   -2.1289    1.0000 </r>
       <r>   -2.1198    1.0000 </r>
       <r>   -2.1153    1.0000 </r>
       <r>   -2.1056    1.0000 </r>
       <r>   -2.0988    1.0000 </r>
       <r>   -2.0971    1.0000 </r>
       <r>   -2.0950    1.0000 </r>
       <r>   -2.0942    1.0000 </r>
       <r>   -2.0932    1.0000 </r>
       <r>   -2.0844    1.0000 </r>
       <r>   -2.0811    1.0000 </r>
       <r>   -2.0791    1.0000 </r>
       <r>   -2.0554    1.0000 </r>
       <r>   -2.0538    1.0000 </r>
       <r>   -2.0179    1.0000 </r>
       <r>   -2.0147    1.0000 </r>
       <r>   -2.0139    1.0000 </r>
       <r>   -2.0088    1.0000 </r>
       <r>   -2.0051    1.0000 </r>
       <r>   -1.9678    1.0000 </r>
       <r>   -1.9331    1.0000 </r>
       <r>   -1.9312    1.0000 </r>
       <r>   -1.9298    1.0000 </r>
       <r>   -1.9280    1.0000 </r>
       <r>   -1.9203    1.0000 </r>
       <r>   -1.9150    1.0000 </r>
       <r>   -1.9137    1.0000 </r>
       <r>   -1.8995    1.0000 </r>
       <r>   -1.8799    1.0000 </r>
       <r>   -1.8696    1.0000 </r>
       <r>   -1.8692    1.0000 </r>
       <r>   -1.8676    1.0000 </r>
       <r>   -1.8596    1.0000 </r>
       <r>   -1.8561    1.0000 </r>
       <r>   -1.8541    1.0000 </r>
       <r>   -1.8078    1.0000 </r>
       <r>   -1.3867    1.0000 </r>
       <r>   -1.3832    1.0000 </r>
       <r>   -1.1278    1.0000 </r>
       <r>   -1.1263    1.0000 </r>
       <r>   -1.0485    0.9999 </r>
       <r>   -0.7756    0.9965 </r>
       <r>   -0.6623    1.0317 </r>
       <r>   -0.4349    0.6330 </r>
       <r>   -0.4306    0.6106 </r>
       <r>   -0.1618   -0.0341 </r>
       <r>   -0.1560   -0.0314 </r>
       <r>    0.6991    0.0000 </r>
       <r>    0.7760    0.0000 </r>
       <r>    0.8854    0.0000 </r>
       <r>    1.2642    0.0000 </r>
       <r>    1.2705    0.0000 </r>
       <r>    1.7081    0.0000 </r>
       <r>    1.7109    0.0000 </r>
       <r>    1.8082    0.0000 </r>
       <r>    1.8224    0.0000 </r>
       <r>    2.5226    0.0000 </r>
       <r>    3.0241    0.0000 </r>
       <r>    3.0832    0.0000 </r>
       <r>    3.0891    0.0000 </r>
       <r>    3.2222    0.0000 </r>
       <r>    3.3944    0.0000 </r>
       <r>    3.4017    0.0000 </r>
       <r>    3.5692    0.0000 </r>
       <r>    3.6115    0.0000 </r>
       <r>    3.6154    0.0000 </r>
       <r>    3.7438    0.0000 </r>
       <r>    3.7472    0.0000 </r>
       <r>    3.9929    0.0000 </r>
       <r>    4.4527    0.0000 </r>
       <r>    4.4591    0.0000 </r>
       <r>    4.4594    0.0000 </r>
       <r>    4.4638    0.0000 </r>
       <r>    4.7969    0.0000 </r>
       <r>    4.8000    0.0000 </r>
       <r>    4.8286    0.0000 </r>
       <r>    5.0524    0.0000 </r>
       <r>    5.0586    0.0000 </r>
       <r>    5.2615    0.0000 </r>
       <r>    5.2708    0.0000 </r>
       <r>    5.4277    0.0000 </r>
       <r>    5.4383    0.0000 </r>
       <r>    5.4793    0.0000 </r>
       <r>    5.7402    0.0000 </r>
      </set>
      <set comment="kpoint 5">
       <r>   -8.4962    1.0000 </r>
       <r>   -7.8681    1.0000 </r>
       <r>   -6.9733    1.0000 </r>
       <r>   -6.7091    1.0000 </r>
       <r>   -6.4205    1.0000 </r>
       <r>   -6.1882    1.0000 </r>
       <r>   -5.7699    1.0000 </r>
       <r>   -5.5028    1.0000 </r>
       <r>   -5.3786    1.0000 </r>
       <r>   -5.2353    1.0000 </r>
       <r>   -5.1405    1.0000 </r>
       <r>   -5.0701    1.0000 </r>
       <r>   -5.0412    1.0000 </r>
       <r>   -5.0336    1.0000 </r>
       <r>   -4.7906    1.0000 </r>
       <r>   -4.7622    1.0000 </r>
       <r>   -4.7559    1.0000 </r>
       <r>   -4.7008    1.0000 </r>
       <r>   -4.6930    1.0000 </r>
       <r>   -4.6522    1.0000 </r>
       <r>   -4.5422    1.0000 </r>
       <r>   -4.4915    1.0000 </r>
       <r>   -4.4815    1.0000 </r>
       <r>   -4.4456    1.0000 </r>
       <r>   -4.4147    1.0000 </r>
       <r>   -4.3772    1.0000 </r>
       <r>   -4.3670    1.0000 </r>
       <r>   -4.3584    1.0000 </r>
       <r>   -4.3454    1.0000 </r>
       <r>   -4.3170    1.0000 </r>
       <r>   -4.2980    1.0000 </r>
       <r>   -4.2921    1.0000 </r>
       <r>   -4.2019    1.0000 </r>
       <r>   -4.1952    1.0000 </r>
       <r>   -4.1191    1.0000 </r>
       <r>   -4.1081    1.0000 </r>
       <r>   -4.0837    1.0000 </r>
       <r>   -4.0747    1.0000 </r>
       <r>   -4.0141    1.0000 </r>
       <r>   -4.0103    1.0000 </r>
       <r>   -3.9941    1.0000 </r>
       <r>   -3.9665    1.0000 </r>
       <r>   -3.9571    1.0000 </r>
       <r>   -3.8914    1.0000 </r>
       <r>   -3.8877    1.0000 </r>
       <r>   -3.8765    1.0000 </r>
       <r>   -3.8231    1.0000 </r>
       <r>   -3.7846    1.0000 </r>
       <r>   -3.7804    1.0000 </r>
       <r>   -3.7621    1.0000 </r>
       <r>   -3.7555    1.0000 </r>
       <r>   -3.6952    1.0000 </r>
       <r>   -3.6529    1.0000 </r>
       <r>   -3.6434    1.0000 </r>
       <r>   -3.6293    1.0000 </r>
       <r>   -3.6057    1.0000 </r>
       <r>   -3.5978    1.0000 </r>
       <r>   -3.5844    1.0000 </r>
       <r>   -3.5377    1.0000 </r>
       <r>   -3.5328    1.0000 </r>
       <r>   -3.5160    1.0000 </r>
       <r>   -3.5110    1.0000 </r>
       <r>   -3.4985    1.0000 </r>
       <r>   -3.4905    1.0000 </r>
       <r>   -3.4798    1.0000 </r>
       <r>   -3.4723    1.0000 </r>
       <r>   -3.4565    1.0000 </r>
       <r>   -3.3824    1.0000 </r>
       <r>   -3.3431    1.0000 </r>
       <r>   -3.3123    1.0000 </r>
       <r>   -3.3035    1.0000 </r>
       <r>   -3.2984    1.0000 </r>
       <r>   -3.2793    1.0000 </r>
       <r>   -3.2670    1.0000 </r>
       <r>   -3.2194    1.0000 </r>
       <r>   -3.1982    1.0000 </r>
       <r>   -3.1730    1.0000 </r>
       <r>   -3.1678    1.0000 </r>
       <r>   -3.1588    1.0000 </r>
       <r>   -3.1551    1.0000 </r>
       <r>   -3.1489    1.0000 </r>
       <r>   -3.1452    1.0000 </r>
       <r>   -3.1362    1.0000 </r>
       <r>   -3.1325    1.0000 </r>
       <r>   -3.1171    1.0000 </r>
       <r>   -3.1037    1.0000 </r>
       <r>   -3.0890    1.0000 </r>
       <r>   -3.0873    1.0000 </r>
       <r>   -3.0634    1.0000 </r>
       <r>   -3.0556    1.0000 </r>
       <r>   -3.0518    1.0000 </r>
       <r>   -3.0299    1.0000 </r>
       <r>   -3.0232    1.0000 </r>
       <r>   -2.9894    1.0000 </r>
       <r>   -2.9818    1.0000 </r>
       <r>   -2.9546    1.0000 </r>
       <r>   -2.9285    1.0000 </r>
       <r>   -2.9254    1.0000 </r>
       <r>   -2.8667    1.0000 </r>
       <r>   -2.8533    1.0000 </r>
       <r>   -2.8197    1.0000 </r>
       <r>   -2.8161    1.0000 </r>
       <r>   -2.8055    1.0000 </r>
       <r>   -2.7983    1.0000 </r>
       <r>   -2.7926    1.0000 </r>
       <r>   -2.7887    1.0000 </r>
       <r>   -2.7718    1.0000 </r>
       <r>   -2.7664    1.0000 </r>
       <r>   -2.7530    1.0000 </r>
       <r>   -2.7369    1.0000 </r>
       <r>   -2.7273    1.0000 </r>
       <r>   -2.7118    1.0000 </r>
       <r>   -2.6810    1.0000 </r>
       <r>   -2.6656    1.0000 </r>
       <r>   -2.6634    1.0000 </r>
       <r>   -2.6567    1.0000 </r>
       <r>   -2.6536    1.0000 </r>
       <r>   -2.6468    1.0000 </r>
       <r>   -2.6221    1.0000 </r>
       <r>   -2.6147    1.0000 </r>
       <r>   -2.6006    1.0000 </r>
       <r>   -2.5821    1.0000 </r>
       <r>   -2.5745    1.0000 </r>
       <r>   -2.5669    1.0000 </r>
       <r>   -2.5593    1.0000 </r>
       <r>   -2.4994    1.0000 </r>
       <r>   -2.4699    1.0000 </r>
       <r>   -2.4535    1.0000 </r>
       <r>   -2.4438    1.0000 </r>
       <r>   -2.4411    1.0000 </r>
       <r>   -2.4288    1.0000 </r>
       <r>   -2.4190    1.0000 </r>
       <r>   -2.3995    1.0000 </r>
       <r>   -2.3891    1.0000 </r>
       <r>   -2.3802    1.0000 </r>
       <r>   -2.3769    1.0000 </r>
       <r>   -2.3697    1.0000 </r>
       <r>   -2.3659    1.0000 </r>
       <r>   -2.3478    1.0000 </r>
       <r>   -2.3395    1.0000 </r>
       <r>   -2.3354    1.0000 </r>
       <r>   -2.3334    1.0000 </r>
       <r>   -2.3190    1.0000 </r>
       <r>   -2.3179    1.0000 </r>
       <r>   -2.2969    1.0000 </r>
       <r>   -2.2936    1.0000 </r>
       <r>   -2.2757    1.0000 </r>
       <r>   -2.2671    1.0000 </r>
       <r>   -2.2385    1.0000 </r>
       <r>   -2.2328    1.0000 </r>
       <r>   -2.2274    1.0000 </r>
       <r>   -2.1941    1.0000 </r>
       <r>   -2.1769    1.0000 </r>
       <r>   -2.1709    1.0000 </r>
       <r>   -2.1616    1.0000 </r>
       <r>   -2.1594    1.0000 </r>
       <r>   -2.1241    1.0000 </r>
       <r>   -2.1180    1.0000 </r>
       <r>   -2.0960    1.0000 </r>
       <r>   -2.0949    1.0000 </r>
       <r>   -2.0938    1.0000 </r>
       <r>   -2.0851    1.0000 </r>
       <r>   -2.0790    1.0000 </r>
       <r>   -2.0751    1.0000 </r>
       <r>   -2.0717    1.0000 </r>
       <r>   -2.0580    1.0000 </r>
       <r>   -2.0390    1.0000 </r>
       <r>   -2.0361    1.0000 </r>
       <r>   -2.0341    1.0000 </r>
       <r>   -2.0326    1.0000 </r>
       <r>   -2.0231    1.0000 </r>
       <r>   -2.0099    1.0000 </r>
       <r>   -2.0078    1.0000 </r>
       <r>   -2.0038    1.0000 </r>
       <r>   -1.9892    1.0000 </r>
       <r>   -1.9691    1.0000 </r>
       <r>   -1.9507    1.0000 </r>
       <r>   -1.9399    1.0000 </r>
       <r>   -1.9298    1.0000 </r>
       <r>   -1.9258    1.0000 </r>
       <r>   -1.9162    1.0000 </r>
       <r>   -1.8856    1.0000 </r>
       <r>   -1.8744    1.0000 </r>
       <r>   -1.8719    1.0000 </r>
       <r>   -1.8564    1.0000 </r>
       <r>   -1.8327    1.0000 </r>
       <r>   -1.7823    1.0000 </r>
       <r>   -1.7432    1.0000 </r>
       <r>   -1.7196    1.0000 </r>
       <r>   -1.6589    1.0000 </r>
       <r>   -1.6188    1.0000 </r>
       <r>   -1.5528    1.0000 </r>
       <r>   -1.4834    1.0000 </r>
       <r>   -1.1306    1.0000 </r>
       <r>   -1.0408    0.9999 </r>
       <r>   -0.9063    0.9978 </r>
       <r>   -0.7344    1.0033 </r>
       <r>   -0.3121    0.0688 </r>
       <r>   -0.1278   -0.0182 </r>
       <r>   -0.1163   -0.0135 </r>
       <r>   -0.0400    0.0037 </r>
       <r>    0.0611    0.0031 </r>
       <r>    0.2028    0.0002 </r>
       <r>    0.4023    0.0000 </r>
       <r>    0.6369    0.0000 </r>
       <r>    0.8349    0.0000 </r>
       <r>    1.2117    0.0000 </r>
       <r>    1.3517    0.0000 </r>
       <r>    1.6233    0.0000 </r>
       <r>    1.6400    0.0000 </r>
       <r>    2.1246    0.0000 </r>
       <r>    2.2209    0.0000 </r>
       <r>    2.2711    0.0000 </r>
       <r>    2.3030    0.0000 </r>
       <r>    2.3226    0.0000 </r>
       <r>    2.6527    0.0000 </r>
       <r>    2.7689    0.0000 </r>
       <r>    2.8487    0.0000 </r>
       <r>    2.8534    0.0000 </r>
       <r>    3.3045    0.0000 </r>
       <r>    3.3104    0.0000 </r>
       <r>    3.4993    0.0000 </r>
       <r>    3.7128    0.0000 </r>
       <r>    3.7423    0.0000 </r>
       <r>    3.7693    0.0000 </r>
       <r>    3.9568    0.0000 </r>
       <r>    4.0354    0.0000 </r>
       <r>    4.3034    0.0000 </r>
       <r>    4.4743    0.0000 </r>
       <r>    4.5789    0.0000 </r>
       <r>    4.6009    0.0000 </r>
       <r>    4.7829    0.0000 </r>
       <r>    4.8906    0.0000 </r>
       <r>    4.9349    0.0000 </r>
       <r>    5.0782    0.0000 </r>
       <r>    5.1248    0.0000 </r>
       <r>    5.1502    0.0000 </r>
       <r>    5.3374    0.0000 </r>
       <r>    5.4278    0.0000 </r>
       <r>    5.5555    0.0000 </r>
      </set>
      <set comment="kpoint 6">
       <r>   -8.1761    1.0000 </r>
       <r>   -7.5627    1.0000 </r>
       <r>   -7.5558    1.0000 </r>
       <r>   -6.9719    1.0000 </r>
       <r>   -6.6783    1.0000 </r>
       <r>   -6.1433    1.0000 </r>
       <r>   -6.1347    1.0000 </r>
       <r>   -5.6345    1.0000 </r>
       <r>   -5.0481    1.0000 </r>
       <r>   -5.0411    1.0000 </r>
       <r>   -4.9063    1.0000 </r>
       <r>   -4.8651    1.0000 </r>
       <r>   -4.8567    1.0000 </r>
       <r>   -4.8121    1.0000 </r>
       <r>   -4.7846    1.0000 </r>
       <r>   -4.7810    1.0000 </r>
       <r>   -4.7551    1.0000 </r>
       <r>   -4.6045    1.0000 </r>
       <r>   -4.5886    1.0000 </r>
       <r>   -4.5842    1.0000 </r>
       <r>   -4.5669    1.0000 </r>
       <r>   -4.5623    1.0000 </r>
       <r>   -4.4421    1.0000 </r>
       <r>   -4.4390    1.0000 </r>
       <r>   -4.4092    1.0000 </r>
       <r>   -4.4024    1.0000 </r>
       <r>   -4.3722    1.0000 </r>
       <r>   -4.3659    1.0000 </r>
       <r>   -4.3549    1.0000 </r>
       <r>   -4.3523    1.0000 </r>
       <r>   -4.2836    1.0000 </r>
       <r>   -4.2629    1.0000 </r>
       <r>   -4.2596    1.0000 </r>
       <r>   -4.2547    1.0000 </r>
       <r>   -4.2092    1.0000 </r>
       <r>   -4.2046    1.0000 </r>
       <r>   -4.1847    1.0000 </r>
       <r>   -4.1259    1.0000 </r>
       <r>   -4.1245    1.0000 </r>
       <r>   -4.1169    1.0000 </r>
       <r>   -4.0740    1.0000 </r>
       <r>   -3.9489    1.0000 </r>
       <r>   -3.9107    1.0000 </r>
       <r>   -3.8721    1.0000 </r>
       <r>   -3.8689    1.0000 </r>
       <r>   -3.8078    1.0000 </r>
       <r>   -3.7972    1.0000 </r>
       <r>   -3.7828    1.0000 </r>
       <r>   -3.7768    1.0000 </r>
       <r>   -3.7698    1.0000 </r>
       <r>   -3.7549    1.0000 </r>
       <r>   -3.7491    1.0000 </r>
       <r>   -3.7150    1.0000 </r>
       <r>   -3.7062    1.0000 </r>
       <r>   -3.6751    1.0000 </r>
       <r>   -3.5892    1.0000 </r>
       <r>   -3.5804    1.0000 </r>
       <r>   -3.5730    1.0000 </r>
       <r>   -3.5653    1.0000 </r>
       <r>   -3.5277    1.0000 </r>
       <r>   -3.5204    1.0000 </r>
       <r>   -3.4837    1.0000 </r>
       <r>   -3.4816    1.0000 </r>
       <r>   -3.4444    1.0000 </r>
       <r>   -3.4360    1.0000 </r>
       <r>   -3.4174    1.0000 </r>
       <r>   -3.4115    1.0000 </r>
       <r>   -3.3969    1.0000 </r>
       <r>   -3.3883    1.0000 </r>
       <r>   -3.3396    1.0000 </r>
       <r>   -3.3308    1.0000 </r>
       <r>   -3.3100    1.0000 </r>
       <r>   -3.3067    1.0000 </r>
       <r>   -3.2966    1.0000 </r>
       <r>   -3.2865    1.0000 </r>
       <r>   -3.2516    1.0000 </r>
       <r>   -3.2175    1.0000 </r>
       <r>   -3.2111    1.0000 </r>
       <r>   -3.2069    1.0000 </r>
       <r>   -3.2025    1.0000 </r>
       <r>   -3.1999    1.0000 </r>
       <r>   -3.1915    1.0000 </r>
       <r>   -3.1337    1.0000 </r>
       <r>   -3.1235    1.0000 </r>
       <r>   -3.1196    1.0000 </r>
       <r>   -3.1021    1.0000 </r>
       <r>   -3.0805    1.0000 </r>
       <r>   -3.0776    1.0000 </r>
       <r>   -3.0506    1.0000 </r>
       <r>   -3.0465    1.0000 </r>
       <r>   -3.0228    1.0000 </r>
       <r>   -3.0182    1.0000 </r>
       <r>   -3.0139    1.0000 </r>
       <r>   -2.9757    1.0000 </r>
       <r>   -2.9735    1.0000 </r>
       <r>   -2.9222    1.0000 </r>
       <r>   -2.9134    1.0000 </r>
       <r>   -2.9091    1.0000 </r>
       <r>   -2.8911    1.0000 </r>
       <r>   -2.8743    1.0000 </r>
       <r>   -2.8684    1.0000 </r>
       <r>   -2.8347    1.0000 </r>
       <r>   -2.8183    1.0000 </r>
       <r>   -2.8092    1.0000 </r>
       <r>   -2.8055    1.0000 </r>
       <r>   -2.8030    1.0000 </r>
       <r>   -2.7959    1.0000 </r>
       <r>   -2.7933    1.0000 </r>
       <r>   -2.7839    1.0000 </r>
       <r>   -2.7742    1.0000 </r>
       <r>   -2.7230    1.0000 </r>
       <r>   -2.7192    1.0000 </r>
       <r>   -2.7170    1.0000 </r>
       <r>   -2.7105    1.0000 </r>
       <r>   -2.6932    1.0000 </r>
       <r>   -2.6857    1.0000 </r>
       <r>   -2.6697    1.0000 </r>
       <r>   -2.6675    1.0000 </r>
       <r>   -2.6621    1.0000 </r>
       <r>   -2.6586    1.0000 </r>
       <r>   -2.6529    1.0000 </r>
       <r>   -2.6484    1.0000 </r>
       <r>   -2.6413    1.0000 </r>
       <r>   -2.6297    1.0000 </r>
       <r>   -2.6270    1.0000 </r>
       <r>   -2.6262    1.0000 </r>
       <r>   -2.5945    1.0000 </r>
       <r>   -2.5714    1.0000 </r>
       <r>   -2.5678    1.0000 </r>
       <r>   -2.5454    1.0000 </r>
       <r>   -2.4870    1.0000 </r>
       <r>   -2.4833    1.0000 </r>
       <r>   -2.4357    1.0000 </r>
       <r>   -2.4322    1.0000 </r>
       <r>   -2.3858    1.0000 </r>
       <r>   -2.3843    1.0000 </r>
       <r>   -2.3834    1.0000 </r>
       <r>   -2.3518    1.0000 </r>
       <r>   -2.3305    1.0000 </r>
       <r>   -2.3268    1.0000 </r>
       <r>   -2.3238    1.0000 </r>
       <r>   -2.3213    1.0000 </r>
       <r>   -2.3141    1.0000 </r>
       <r>   -2.3108    1.0000 </r>
       <r>   -2.3053    1.0000 </r>
       <r>   -2.2819    1.0000 </r>
       <r>   -2.2814    1.0000 </r>
       <r>   -2.2456    1.0000 </r>
       <r>   -2.2420    1.0000 </r>
       <r>   -2.2247    1.0000 </r>
       <r>   -2.1960    1.0000 </r>
       <r>   -2.1622    1.0000 </r>
       <r>   -2.1571    1.0000 </r>
       <r>   -2.1454    1.0000 </r>
       <r>   -2.1395    1.0000 </r>
       <r>   -2.1388    1.0000 </r>
       <r>   -2.1366    1.0000 </r>
       <r>   -2.1336    1.0000 </r>
       <r>   -2.1155    1.0000 </r>
       <r>   -2.1128    1.0000 </r>
       <r>   -2.1109    1.0000 </r>
       <r>   -2.1098    1.0000 </r>
       <r>   -2.0983    1.0000 </r>
       <r>   -2.0969    1.0000 </r>
       <r>   -2.0944    1.0000 </r>
       <r>   -2.0936    1.0000 </r>
       <r>   -2.0245    1.0000 </r>
       <r>   -2.0127    1.0000 </r>
       <r>   -2.0049    1.0000 </r>
       <r>   -1.9882    1.0000 </r>
       <r>   -1.9873    1.0000 </r>
       <r>   -1.9817    1.0000 </r>
       <r>   -1.9725    1.0000 </r>
       <r>   -1.9599    1.0000 </r>
       <r>   -1.9596    1.0000 </r>
       <r>   -1.9445    1.0000 </r>
       <r>   -1.9439    1.0000 </r>
       <r>   -1.9206    1.0000 </r>
       <r>   -1.9182    1.0000 </r>
       <r>   -1.9161    1.0000 </r>
       <r>   -1.9124    1.0000 </r>
       <r>   -1.9030    1.0000 </r>
       <r>   -1.9018    1.0000 </r>
       <r>   -1.8914    1.0000 </r>
       <r>   -1.8830    1.0000 </r>
       <r>   -1.8362    1.0000 </r>
       <r>   -1.6570    1.0000 </r>
       <r>   -1.5602    1.0000 </r>
       <r>   -1.5359    1.0000 </r>
       <r>   -1.2858    1.0000 </r>
       <r>   -1.2843    1.0000 </r>
       <r>   -0.9516    0.9990 </r>
       <r>   -0.9492    0.9989 </r>
       <r>   -0.8045    0.9951 </r>
       <r>   -0.6209    1.0487 </r>
       <r>   -0.6201    1.0490 </r>
       <r>   -0.4746    0.8175 </r>
       <r>   -0.4698    0.7973 </r>
       <r>    0.0905    0.0021 </r>
       <r>    0.3021    0.0000 </r>
       <r>    0.3067    0.0000 </r>
       <r>    0.4910    0.0000 </r>
       <r>    0.4927    0.0000 </r>
       <r>    0.5832    0.0000 </r>
       <r>    0.5874    0.0000 </r>
       <r>    0.7609    0.0000 </r>
       <r>    0.7713    0.0000 </r>
       <r>    0.9939    0.0000 </r>
       <r>    0.9973    0.0000 </r>
       <r>    1.4130    0.0000 </r>
       <r>    1.5646    0.0000 </r>
       <r>    1.5758    0.0000 </r>
       <r>    1.6352    0.0000 </r>
       <r>    1.8395    0.0000 </r>
       <r>    2.3788    0.0000 </r>
       <r>    2.6810    0.0000 </r>
       <r>    2.6868    0.0000 </r>
       <r>    2.8166    0.0000 </r>
       <r>    2.8247    0.0000 </r>
       <r>    3.1605    0.0000 </r>
       <r>    3.1626    0.0000 </r>
       <r>    3.1741    0.0000 </r>
       <r>    3.4436    0.0000 </r>
       <r>    3.5265    0.0000 </r>
       <r>    3.6084    0.0000 </r>
       <r>    3.6096    0.0000 </r>
       <r>    3.8242    0.0000 </r>
       <r>    3.8259    0.0000 </r>
       <r>    4.2065    0.0000 </r>
       <r>    4.2140    0.0000 </r>
       <r>    4.4051    0.0000 </r>
       <r>    4.4747    0.0000 </r>
       <r>    4.6139    0.0000 </r>
       <r>    5.1022    0.0000 </r>
       <r>    5.1038    0.0000 </r>
       <r>    5.2359    0.0000 </r>
       <r>    5.2382    0.0000 </r>
       <r>    5.4764    0.0000 </r>
       <r>    5.5441    0.0000 </r>
       <r>    5.5506    0.0000 </r>
      </set>
      <set comment="kpoint 7">
       <r>   -8.1761    1.0000 </r>
       <r>   -7.5620    1.0000 </r>
       <r>   -7.5565    1.0000 </r>
       <r>   -6.9719    1.0000 </r>
       <r>   -6.6783    1.0000 </r>
       <r>   -6.1444    1.0000 </r>
       <r>   -6.1336    1.0000 </r>
       <r>   -5.6345    1.0000 </r>
       <r>   -5.0482    1.0000 </r>
       <r>   -5.0410    1.0000 </r>
       <r>   -4.9063    1.0000 </r>
       <r>   -4.8654    1.0000 </r>
       <r>   -4.8562    1.0000 </r>
       <r>   -4.8120    1.0000 </r>
       <r>   -4.7837    1.0000 </r>
       <r>   -4.7812    1.0000 </r>
       <r>   -4.7561    1.0000 </r>
       <r>   -4.6046    1.0000 </r>
       <r>   -4.5890    1.0000 </r>
       <r>   -4.5836    1.0000 </r>
       <r>   -4.5664    1.0000 </r>
       <r>   -4.5630    1.0000 </r>
       <r>   -4.4418    1.0000 </r>
       <r>   -4.4393    1.0000 </r>
       <r>   -4.4093    1.0000 </r>
       <r>   -4.4021    1.0000 </r>
       <r>   -4.3719    1.0000 </r>
       <r>   -4.3659    1.0000 </r>
       <r>   -4.3556    1.0000 </r>
       <r>   -4.3523    1.0000 </r>
       <r>   -4.2838    1.0000 </r>
       <r>   -4.2630    1.0000 </r>
       <r>   -4.2594    1.0000 </r>
       <r>   -4.2548    1.0000 </r>
       <r>   -4.2093    1.0000 </r>
       <r>   -4.2045    1.0000 </r>
       <r>   -4.1845    1.0000 </r>
       <r>   -4.1255    1.0000 </r>
       <r>   -4.1246    1.0000 </r>
       <r>   -4.1172    1.0000 </r>
       <r>   -4.0740    1.0000 </r>
       <r>   -3.9489    1.0000 </r>
       <r>   -3.9106    1.0000 </r>
       <r>   -3.8719    1.0000 </r>
       <r>   -3.8690    1.0000 </r>
       <r>   -3.8084    1.0000 </r>
       <r>   -3.7977    1.0000 </r>
       <r>   -3.7828    1.0000 </r>
       <r>   -3.7765    1.0000 </r>
       <r>   -3.7708    1.0000 </r>
       <r>   -3.7542    1.0000 </r>
       <r>   -3.7492    1.0000 </r>
       <r>   -3.7146    1.0000 </r>
       <r>   -3.7057    1.0000 </r>
       <r>   -3.6752    1.0000 </r>
       <r>   -3.5893    1.0000 </r>
       <r>   -3.5805    1.0000 </r>
       <r>   -3.5725    1.0000 </r>
       <r>   -3.5655    1.0000 </r>
       <r>   -3.5281    1.0000 </r>
       <r>   -3.5205    1.0000 </r>
       <r>   -3.4839    1.0000 </r>
       <r>   -3.4814    1.0000 </r>
       <r>   -3.4460    1.0000 </r>
       <r>   -3.4351    1.0000 </r>
       <r>   -3.4183    1.0000 </r>
       <r>   -3.4093    1.0000 </r>
       <r>   -3.3969    1.0000 </r>
       <r>   -3.3875    1.0000 </r>
       <r>   -3.3408    1.0000 </r>
       <r>   -3.3310    1.0000 </r>
       <r>   -3.3100    1.0000 </r>
       <r>   -3.3062    1.0000 </r>
       <r>   -3.2966    1.0000 </r>
       <r>   -3.2868    1.0000 </r>
       <r>   -3.2519    1.0000 </r>
       <r>   -3.2176    1.0000 </r>
       <r>   -3.2107    1.0000 </r>
       <r>   -3.2074    1.0000 </r>
       <r>   -3.2021    1.0000 </r>
       <r>   -3.1998    1.0000 </r>
       <r>   -3.1912    1.0000 </r>
       <r>   -3.1351    1.0000 </r>
       <r>   -3.1231    1.0000 </r>
       <r>   -3.1189    1.0000 </r>
       <r>   -3.1007    1.0000 </r>
       <r>   -3.0805    1.0000 </r>
       <r>   -3.0780    1.0000 </r>
       <r>   -3.0508    1.0000 </r>
       <r>   -3.0470    1.0000 </r>
       <r>   -3.0233    1.0000 </r>
       <r>   -3.0177    1.0000 </r>
       <r>   -3.0143    1.0000 </r>
       <r>   -2.9766    1.0000 </r>
       <r>   -2.9728    1.0000 </r>
       <r>   -2.9220    1.0000 </r>
       <r>   -2.9133    1.0000 </r>
       <r>   -2.9092    1.0000 </r>
       <r>   -2.8914    1.0000 </r>
       <r>   -2.8746    1.0000 </r>
       <r>   -2.8685    1.0000 </r>
       <r>   -2.8349    1.0000 </r>
       <r>   -2.8189    1.0000 </r>
       <r>   -2.8087    1.0000 </r>
       <r>   -2.8051    1.0000 </r>
       <r>   -2.8031    1.0000 </r>
       <r>   -2.7953    1.0000 </r>
       <r>   -2.7936    1.0000 </r>
       <r>   -2.7848    1.0000 </r>
       <r>   -2.7726    1.0000 </r>
       <r>   -2.7226    1.0000 </r>
       <r>   -2.7197    1.0000 </r>
       <r>   -2.7168    1.0000 </r>
       <r>   -2.7098    1.0000 </r>
       <r>   -2.6939    1.0000 </r>
       <r>   -2.6857    1.0000 </r>
       <r>   -2.6700    1.0000 </r>
       <r>   -2.6669    1.0000 </r>
       <r>   -2.6607    1.0000 </r>
       <r>   -2.6583    1.0000 </r>
       <r>   -2.6532    1.0000 </r>
       <r>   -2.6487    1.0000 </r>
       <r>   -2.6428    1.0000 </r>
       <r>   -2.6299    1.0000 </r>
       <r>   -2.6270    1.0000 </r>
       <r>   -2.6259    1.0000 </r>
       <r>   -2.5948    1.0000 </r>
       <r>   -2.5699    1.0000 </r>
       <r>   -2.5685    1.0000 </r>
       <r>   -2.5464    1.0000 </r>
       <r>   -2.4873    1.0000 </r>
       <r>   -2.4824    1.0000 </r>
       <r>   -2.4354    1.0000 </r>
       <r>   -2.4325    1.0000 </r>
       <r>   -2.3860    1.0000 </r>
       <r>   -2.3846    1.0000 </r>
       <r>   -2.3836    1.0000 </r>
       <r>   -2.3517    1.0000 </r>
       <r>   -2.3300    1.0000 </r>
       <r>   -2.3274    1.0000 </r>
       <r>   -2.3248    1.0000 </r>
       <r>   -2.3209    1.0000 </r>
       <r>   -2.3138    1.0000 </r>
       <r>   -2.3110    1.0000 </r>
       <r>   -2.3048    1.0000 </r>
       <r>   -2.2818    1.0000 </r>
       <r>   -2.2813    1.0000 </r>
       <r>   -2.2454    1.0000 </r>
       <r>   -2.2420    1.0000 </r>
       <r>   -2.2247    1.0000 </r>
       <r>   -2.1960    1.0000 </r>
       <r>   -2.1623    1.0000 </r>
       <r>   -2.1569    1.0000 </r>
       <r>   -2.1458    1.0000 </r>
       <r>   -2.1397    1.0000 </r>
       <r>   -2.1389    1.0000 </r>
       <r>   -2.1363    1.0000 </r>
       <r>   -2.1334    1.0000 </r>
       <r>   -2.1154    1.0000 </r>
       <r>   -2.1131    1.0000 </r>
       <r>   -2.1106    1.0000 </r>
       <r>   -2.1096    1.0000 </r>
       <r>   -2.0982    1.0000 </r>
       <r>   -2.0967    1.0000 </r>
       <r>   -2.0948    1.0000 </r>
       <r>   -2.0934    1.0000 </r>
       <r>   -2.0245    1.0000 </r>
       <r>   -2.0128    1.0000 </r>
       <r>   -2.0051    1.0000 </r>
       <r>   -1.9884    1.0000 </r>
       <r>   -1.9872    1.0000 </r>
       <r>   -1.9817    1.0000 </r>
       <r>   -1.9727    1.0000 </r>
       <r>   -1.9599    1.0000 </r>
       <r>   -1.9594    1.0000 </r>
       <r>   -1.9445    1.0000 </r>
       <r>   -1.9439    1.0000 </r>
       <r>   -1.9207    1.0000 </r>
       <r>   -1.9187    1.0000 </r>
       <r>   -1.9155    1.0000 </r>
       <r>   -1.9121    1.0000 </r>
       <r>   -1.9032    1.0000 </r>
       <r>   -1.9016    1.0000 </r>
       <r>   -1.8915    1.0000 </r>
       <r>   -1.8830    1.0000 </r>
       <r>   -1.8362    1.0000 </r>
       <r>   -1.6570    1.0000 </r>
       <r>   -1.5602    1.0000 </r>
       <r>   -1.5359    1.0000 </r>
       <r>   -1.2857    1.0000 </r>
       <r>   -1.2843    1.0000 </r>
       <r>   -0.9512    0.9990 </r>
       <r>   -0.9497    0.9990 </r>
       <r>   -0.8046    0.9951 </r>
       <r>   -0.6210    1.0487 </r>
       <r>   -0.6200    1.0490 </r>
       <r>   -0.4755    0.8212 </r>
       <r>   -0.4686    0.7925 </r>
       <r>    0.0905    0.0021 </r>
       <r>    0.3020    0.0000 </r>
       <r>    0.3067    0.0000 </r>
       <r>    0.4910    0.0000 </r>
       <r>    0.4927    0.0000 </r>
       <r>    0.5831    0.0000 </r>
       <r>    0.5873    0.0000 </r>
       <r>    0.7612    0.0000 </r>
       <r>    0.7710    0.0000 </r>
       <r>    0.9943    0.0000 </r>
       <r>    0.9969    0.0000 </r>
       <r>    1.4130    0.0000 </r>
       <r>    1.5668    0.0000 </r>
       <r>    1.5755    0.0000 </r>
       <r>    1.6333    0.0000 </r>
       <r>    1.8395    0.0000 </r>
       <r>    2.3791    0.0000 </r>
       <r>    2.6799    0.0000 </r>
       <r>    2.6880    0.0000 </r>
       <r>    2.8157    0.0000 </r>
       <r>    2.8256    0.0000 </r>
       <r>    3.1608    0.0000 </r>
       <r>    3.1627    0.0000 </r>
       <r>    3.1741    0.0000 </r>
       <r>    3.4436    0.0000 </r>
       <r>    3.5250    0.0000 </r>
       <r>    3.6076    0.0000 </r>
       <r>    3.6110    0.0000 </r>
       <r>    3.8242    0.0000 </r>
       <r>    3.8259    0.0000 </r>
       <r>    4.2061    0.0000 </r>
       <r>    4.2146    0.0000 </r>
       <r>    4.4054    0.0000 </r>
       <r>    4.4751    0.0000 </r>
       <r>    4.6181    0.0000 </r>
       <r>    5.1022    0.0000 </r>
       <r>    5.1037    0.0000 </r>
       <r>    5.2362    0.0000 </r>
       <r>    5.2387    0.0000 </r>
       <r>    5.5430    0.0000 </r>
       <r>    5.5488    0.0000 </r>
       <r>    5.9976    0.0000 </r>
      </set>
      <set comment="kpoint 8">
       <r>   -8.4962    1.0000 </r>
       <r>   -7.8681    1.0000 </r>
       <r>   -6.9733    1.0000 </r>
       <r>   -6.7091    1.0000 </r>
       <r>   -6.4204    1.0000 </r>
       <r>   -6.1882    1.0000 </r>
       <r>   -5.7699    1.0000 </r>
       <r>   -5.5028    1.0000 </r>
       <r>   -5.3785    1.0000 </r>
       <r>   -5.2353    1.0000 </r>
       <r>   -5.1405    1.0000 </r>
       <r>   -5.0700    1.0000 </r>
       <r>   -5.0416    1.0000 </r>
       <r>   -5.0331    1.0000 </r>
       <r>   -4.7906    1.0000 </r>
       <r>   -4.7621    1.0000 </r>
       <r>   -4.7560    1.0000 </r>
       <r>   -4.7016    1.0000 </r>
       <r>   -4.6925    1.0000 </r>
       <r>   -4.6520    1.0000 </r>
       <r>   -4.5422    1.0000 </r>
       <r>   -4.4915    1.0000 </r>
       <r>   -4.4815    1.0000 </r>
       <r>   -4.4457    1.0000 </r>
       <r>   -4.4145    1.0000 </r>
       <r>   -4.3773    1.0000 </r>
       <r>   -4.3671    1.0000 </r>
       <r>   -4.3583    1.0000 </r>
       <r>   -4.3452    1.0000 </r>
       <r>   -4.3169    1.0000 </r>
       <r>   -4.2981    1.0000 </r>
       <r>   -4.2921    1.0000 </r>
       <r>   -4.2014    1.0000 </r>
       <r>   -4.1958    1.0000 </r>
       <r>   -4.1190    1.0000 </r>
       <r>   -4.1078    1.0000 </r>
       <r>   -4.0838    1.0000 </r>
       <r>   -4.0749    1.0000 </r>
       <r>   -4.0140    1.0000 </r>
       <r>   -4.0104    1.0000 </r>
       <r>   -3.9941    1.0000 </r>
       <r>   -3.9667    1.0000 </r>
       <r>   -3.9569    1.0000 </r>
       <r>   -3.8915    1.0000 </r>
       <r>   -3.8878    1.0000 </r>
       <r>   -3.8761    1.0000 </r>
       <r>   -3.8231    1.0000 </r>
       <r>   -3.7844    1.0000 </r>
       <r>   -3.7805    1.0000 </r>
       <r>   -3.7625    1.0000 </r>
       <r>   -3.7555    1.0000 </r>
       <r>   -3.6953    1.0000 </r>
       <r>   -3.6528    1.0000 </r>
       <r>   -3.6440    1.0000 </r>
       <r>   -3.6290    1.0000 </r>
       <r>   -3.6053    1.0000 </r>
       <r>   -3.5977    1.0000 </r>
       <r>   -3.5848    1.0000 </r>
       <r>   -3.5375    1.0000 </r>
       <r>   -3.5327    1.0000 </r>
       <r>   -3.5155    1.0000 </r>
       <r>   -3.5111    1.0000 </r>
       <r>   -3.4985    1.0000 </r>
       <r>   -3.4904    1.0000 </r>
       <r>   -3.4801    1.0000 </r>
       <r>   -3.4723    1.0000 </r>
       <r>   -3.4564    1.0000 </r>
       <r>   -3.3823    1.0000 </r>
       <r>   -3.3430    1.0000 </r>
       <r>   -3.3123    1.0000 </r>
       <r>   -3.3041    1.0000 </r>
       <r>   -3.2987    1.0000 </r>
       <r>   -3.2792    1.0000 </r>
       <r>   -3.2665    1.0000 </r>
       <r>   -3.2191    1.0000 </r>
       <r>   -3.1975    1.0000 </r>
       <r>   -3.1735    1.0000 </r>
       <r>   -3.1685    1.0000 </r>
       <r>   -3.1589    1.0000 </r>
       <r>   -3.1556    1.0000 </r>
       <r>   -3.1484    1.0000 </r>
       <r>   -3.1445    1.0000 </r>
       <r>   -3.1355    1.0000 </r>
       <r>   -3.1338    1.0000 </r>
       <r>   -3.1167    1.0000 </r>
       <r>   -3.1035    1.0000 </r>
       <r>   -3.0895    1.0000 </r>
       <r>   -3.0856    1.0000 </r>
       <r>   -3.0646    1.0000 </r>
       <r>   -3.0555    1.0000 </r>
       <r>   -3.0521    1.0000 </r>
       <r>   -3.0297    1.0000 </r>
       <r>   -3.0233    1.0000 </r>
       <r>   -2.9892    1.0000 </r>
       <r>   -2.9817    1.0000 </r>
       <r>   -2.9551    1.0000 </r>
       <r>   -2.9289    1.0000 </r>
       <r>   -2.9257    1.0000 </r>
       <r>   -2.8675    1.0000 </r>
       <r>   -2.8532    1.0000 </r>
       <r>   -2.8201    1.0000 </r>
       <r>   -2.8146    1.0000 </r>
       <r>   -2.8044    1.0000 </r>
       <r>   -2.7983    1.0000 </r>
       <r>   -2.7927    1.0000 </r>
       <r>   -2.7884    1.0000 </r>
       <r>   -2.7715    1.0000 </r>
       <r>   -2.7665    1.0000 </r>
       <r>   -2.7552    1.0000 </r>
       <r>   -2.7369    1.0000 </r>
       <r>   -2.7267    1.0000 </r>
       <r>   -2.7123    1.0000 </r>
       <r>   -2.6812    1.0000 </r>
       <r>   -2.6663    1.0000 </r>
       <r>   -2.6635    1.0000 </r>
       <r>   -2.6559    1.0000 </r>
       <r>   -2.6533    1.0000 </r>
       <r>   -2.6459    1.0000 </r>
       <r>   -2.6211    1.0000 </r>
       <r>   -2.6148    1.0000 </r>
       <r>   -2.6007    1.0000 </r>
       <r>   -2.5828    1.0000 </r>
       <r>   -2.5731    1.0000 </r>
       <r>   -2.5666    1.0000 </r>
       <r>   -2.5609    1.0000 </r>
       <r>   -2.4994    1.0000 </r>
       <r>   -2.4700    1.0000 </r>
       <r>   -2.4533    1.0000 </r>
       <r>   -2.4443    1.0000 </r>
       <r>   -2.4411    1.0000 </r>
       <r>   -2.4289    1.0000 </r>
       <r>   -2.4189    1.0000 </r>
       <r>   -2.3996    1.0000 </r>
       <r>   -2.3896    1.0000 </r>
       <r>   -2.3808    1.0000 </r>
       <r>   -2.3763    1.0000 </r>
       <r>   -2.3696    1.0000 </r>
       <r>   -2.3661    1.0000 </r>
       <r>   -2.3483    1.0000 </r>
       <r>   -2.3394    1.0000 </r>
       <r>   -2.3358    1.0000 </r>
       <r>   -2.3335    1.0000 </r>
       <r>   -2.3188    1.0000 </r>
       <r>   -2.3178    1.0000 </r>
       <r>   -2.2963    1.0000 </r>
       <r>   -2.2937    1.0000 </r>
       <r>   -2.2757    1.0000 </r>
       <r>   -2.2667    1.0000 </r>
       <r>   -2.2389    1.0000 </r>
       <r>   -2.2324    1.0000 </r>
       <r>   -2.2274    1.0000 </r>
       <r>   -2.1937    1.0000 </r>
       <r>   -2.1776    1.0000 </r>
       <r>   -2.1704    1.0000 </r>
       <r>   -2.1617    1.0000 </r>
       <r>   -2.1595    1.0000 </r>
       <r>   -2.1239    1.0000 </r>
       <r>   -2.1178    1.0000 </r>
       <r>   -2.0965    1.0000 </r>
       <r>   -2.0951    1.0000 </r>
       <r>   -2.0937    1.0000 </r>
       <r>   -2.0849    1.0000 </r>
       <r>   -2.0793    1.0000 </r>
       <r>   -2.0752    1.0000 </r>
       <r>   -2.0712    1.0000 </r>
       <r>   -2.0578    1.0000 </r>
       <r>   -2.0396    1.0000 </r>
       <r>   -2.0362    1.0000 </r>
       <r>   -2.0343    1.0000 </r>
       <r>   -2.0324    1.0000 </r>
       <r>   -2.0223    1.0000 </r>
       <r>   -2.0100    1.0000 </r>
       <r>   -2.0078    1.0000 </r>
       <r>   -2.0039    1.0000 </r>
       <r>   -1.9894    1.0000 </r>
       <r>   -1.9691    1.0000 </r>
       <r>   -1.9509    1.0000 </r>
       <r>   -1.9399    1.0000 </r>
       <r>   -1.9297    1.0000 </r>
       <r>   -1.9259    1.0000 </r>
       <r>   -1.9162    1.0000 </r>
       <r>   -1.8855    1.0000 </r>
       <r>   -1.8743    1.0000 </r>
       <r>   -1.8718    1.0000 </r>
       <r>   -1.8564    1.0000 </r>
       <r>   -1.8329    1.0000 </r>
       <r>   -1.7821    1.0000 </r>
       <r>   -1.7433    1.0000 </r>
       <r>   -1.7198    1.0000 </r>
       <r>   -1.6590    1.0000 </r>
       <r>   -1.6187    1.0000 </r>
       <r>   -1.5528    1.0000 </r>
       <r>   -1.4832    1.0000 </r>
       <r>   -1.1306    1.0000 </r>
       <r>   -1.0407    0.9999 </r>
       <r>   -0.9063    0.9978 </r>
       <r>   -0.7343    1.0033 </r>
       <r>   -0.3121    0.0688 </r>
       <r>   -0.1289   -0.0187 </r>
       <r>   -0.1152   -0.0131 </r>
       <r>   -0.0400    0.0037 </r>
       <r>    0.0610    0.0031 </r>
       <r>    0.2028    0.0002 </r>
       <r>    0.4023    0.0000 </r>
       <r>    0.6368    0.0000 </r>
       <r>    0.8350    0.0000 </r>
       <r>    1.2117    0.0000 </r>
       <r>    1.3518    0.0000 </r>
       <r>    1.6228    0.0000 </r>
       <r>    1.6403    0.0000 </r>
       <r>    2.1244    0.0000 </r>
       <r>    2.2208    0.0000 </r>
       <r>    2.2711    0.0000 </r>
       <r>    2.3032    0.0000 </r>
       <r>    2.3230    0.0000 </r>
       <r>    2.6522    0.0000 </r>
       <r>    2.7693    0.0000 </r>
       <r>    2.8484    0.0000 </r>
       <r>    2.8536    0.0000 </r>
       <r>    3.3033    0.0000 </r>
       <r>    3.3113    0.0000 </r>
       <r>    3.4993    0.0000 </r>
       <r>    3.7127    0.0000 </r>
       <r>    3.7424    0.0000 </r>
       <r>    3.7693    0.0000 </r>
       <r>    3.9559    0.0000 </r>
       <r>    4.0364    0.0000 </r>
       <r>    4.3038    0.0000 </r>
       <r>    4.4743    0.0000 </r>
       <r>    4.5786    0.0000 </r>
       <r>    4.6010    0.0000 </r>
       <r>    4.7829    0.0000 </r>
       <r>    4.8906    0.0000 </r>
       <r>    4.9351    0.0000 </r>
       <r>    5.0793    0.0000 </r>
       <r>    5.1242    0.0000 </r>
       <r>    5.1534    0.0000 </r>
       <r>    5.3382    0.0000 </r>
       <r>    5.4319    0.0000 </r>
       <r>    5.6462    0.0000 </r>
      </set>
     </set>
    </set>
   </array>
  </eigenvalues>
  <separator name="orbital magnetization" >
   <v name="MAGDIPOLOUT">      0.00000000      0.00000000      0.00000000</v>
  </separator>
  <dos>
   <i name="efermi">     -0.40949062 </i>
   <total>
    <array>
     <dimension dim="1">gridpoints</dimension>
     <dimension dim="2">spin</dimension>
     <field>energy</field>
     <field>total</field>
     <field>integrated</field>
     <set>
      <set comment="spin 1">
       <r>   -10.8206     0.0000     0.0000 </r>
       <r>   -10.7578     0.0000     0.0000 </r>
       <r>   -10.6951     0.0000     0.0000 </r>
       <r>   -10.6324     0.0000     0.0000 </r>
       <r>   -10.5697     0.0000     0.0000 </r>
       <r>   -10.5069     0.0000     0.0000 </r>
       <r>   -10.4442     0.0000     0.0000 </r>
       <r>   -10.3815     0.0000     0.0000 </r>
       <r>   -10.3188     0.0000     0.0000 </r>
       <r>   -10.2560     0.0000     0.0000 </r>
       <r>   -10.1933     0.0000     0.0000 </r>
       <r>   -10.1306     0.0000     0.0000 </r>
       <r>   -10.0679     0.0000     0.0000 </r>
       <r>   -10.0051     0.0000     0.0000 </r>
       <r>    -9.9424     0.0000     0.0000 </r>
       <r>    -9.8797     0.0000     0.0000 </r>
       <r>    -9.8169     0.0000     0.0000 </r>
       <r>    -9.7542     0.0000     0.0000 </r>
       <r>    -9.6915     0.0000     0.0000 </r>
       <r>    -9.6288     0.0000     0.0000 </r>
       <r>    -9.5660     0.0000     0.0000 </r>
       <r>    -9.5033     0.0002     0.0000 </r>
       <r>    -9.4406     0.0012     0.0001 </r>
       <r>    -9.3779     0.0045     0.0004 </r>
       <r>    -9.3151     0.0120     0.0011 </r>
       <r>    -9.2524     0.0178     0.0022 </r>
       <r>    -9.1897    -0.0057     0.0019 </r>
       <r>    -9.1269    -0.0972    -0.0042 </r>
       <r>    -9.0642    -0.2108    -0.0174 </r>
       <r>    -9.0015    -0.0946    -0.0234 </r>
       <r>    -8.9388     0.5695     0.0124 </r>
       <r>    -8.8760     1.6548     0.1162 </r>
       <r>    -8.8133     2.3554     0.2639 </r>
       <r>    -8.7506     1.9775     0.3880 </r>
       <r>    -8.6879     1.0597     0.4544 </r>
       <r>    -8.6251     1.1003     0.5234 </r>
       <r>    -8.5624     2.7277     0.6945 </r>
       <r>    -8.4997     4.5771     0.9817 </r>
       <r>    -8.4369     4.7085     1.2770 </r>
       <r>    -8.3742     3.0029     1.4654 </r>
       <r>    -8.3115     1.3039     1.5472 </r>
       <r>    -8.2488     1.0778     1.6148 </r>
       <r>    -8.1860     1.7781     1.7263 </r>
       <r>    -8.1233     1.9486     1.8485 </r>
       <r>    -8.0606     1.3779     1.9350 </r>
       <r>    -7.9979     1.3781     2.0214 </r>
       <r>    -7.9351     2.7892     2.1964 </r>
       <r>    -7.8724     4.4408     2.4749 </r>
       <r>    -7.8097     4.4639     2.7549 </r>
       <r>    -7.7469     2.9072     2.9373 </r>
       <r>    -7.6842     1.8848     3.0555 </r>
       <r>    -7.6215     2.7760     3.2296 </r>
       <r>    -7.5588     4.3564     3.5029 </r>
       <r>    -7.4960     4.5289     3.7870 </r>
       <r>    -7.4333     3.1315     3.9834 </r>
       <r>    -7.3706     1.8088     4.0969 </r>
       <r>    -7.3079     1.4427     4.1874 </r>
       <r>    -7.2451     1.2733     4.2672 </r>
       <r>    -7.1824     1.0237     4.3315 </r>
       <r>    -7.1197     2.3386     4.4781 </r>
       <r>    -7.0569     6.4268     4.8813 </r>
       <r>    -6.9942    10.9647     5.5691 </r>
       <r>    -6.9315    11.8725     6.3138 </r>
       <r>    -6.8688     8.6494     6.8563 </r>
       <r>    -6.8060     5.3202     7.1901 </r>
       <r>    -6.7433     5.0030     7.5039 </r>
       <r>    -6.6806     6.1669     7.8907 </r>
       <r>    -6.6179     5.8532     8.2579 </r>
       <r>    -6.5551     4.1574     8.5186 </r>
       <r>    -6.4924     3.2364     8.7217 </r>
       <r>    -6.4297     3.5546     8.9446 </r>
       <r>    -6.3670     3.8365     9.1853 </r>
       <r>    -6.3042     4.0509     9.4394 </r>
       <r>    -6.2415     5.6639     9.7947 </r>
       <r>    -6.1788     8.6977    10.3402 </r>
       <r>    -6.1160    10.8331    11.0198 </r>
       <r>    -6.0533    10.0847    11.6524 </r>
       <r>    -5.9906     7.0473    12.0944 </r>
       <r>    -5.9279     4.3466    12.3671 </r>
       <r>    -5.8651     4.4229    12.6445 </r>
       <r>    -5.8024     7.2216    13.0975 </r>
       <r>    -5.7397    10.0047    13.7251 </r>
       <r>    -5.6770    10.4235    14.3789 </r>
       <r>    -5.6142     9.1740    14.9544 </r>
       <r>    -5.5515     8.4755    15.4860 </r>
       <r>    -5.4888     9.0802    16.0556 </r>
       <r>    -5.4260    10.1108    16.6898 </r>
       <r>    -5.3633    10.8249    17.3688 </r>
       <r>    -5.3006    11.4717    18.0884 </r>
       <r>    -5.2379    13.1547    18.9136 </r>
       <r>    -5.1751    17.1874    19.9917 </r>
       <r>    -5.1124    23.1770    21.4455 </r>
       <r>    -5.0497    27.6646    23.1808 </r>
       <r>    -4.9870    27.4527    24.9028 </r>
       <r>    -4.9242    24.8298    26.4603 </r>
       <r>    -4.8615    25.7255    28.0740 </r>
       <r>    -4.7988    31.8478    30.0718 </r>
       <r>    -4.7360    38.7359    32.5015 </r>
       <r>    -4.6733    42.2983    35.1548 </r>
       <r>    -4.6106    43.4931    37.8830 </r>
       <r>    -4.5479    46.3977    40.7934 </r>
       <r>    -4.4851    54.6162    44.2193 </r>
       <r>    -4.4224    68.3994    48.5098 </r>
       <r>    -4.3597    82.6406    53.6936 </r>
       <r>    -4.2970    89.7842    59.3255 </r>
       <r>    -4.2342    87.0936    64.7886 </r>
       <r>    -4.1715    79.0723    69.7486 </r>
       <r>    -4.1088    71.6133    74.2407 </r>
       <r>    -4.0460    66.4729    78.4104 </r>
       <r>    -3.9833    62.8579    82.3533 </r>
       <r>    -3.9206    61.7775    86.2284 </r>
       <r>    -3.8579    65.5888    90.3426 </r>
       <r>    -3.7951    73.4173    94.9478 </r>
       <r>    -3.7324    80.9218   100.0238 </r>
       <r>    -3.6697    86.6343   105.4582 </r>
       <r>    -3.6070    94.2023   111.3672 </r>
       <r>    -3.5442   104.5776   117.9271 </r>
       <r>    -3.4815   110.6725   124.8692 </r>
       <r>    -3.4188   105.8020   131.5059 </r>
       <r>    -3.3560    95.2372   137.4798 </r>
       <r>    -3.2933    94.0053   143.3765 </r>
       <r>    -3.2306   112.2019   150.4146 </r>
       <r>    -3.1679   142.9217   159.3797 </r>
       <r>    -3.1051   164.9354   169.7256 </r>
       <r>    -3.0424   160.5764   179.7981 </r>
       <r>    -2.9797   133.6657   188.1826 </r>
       <r>    -2.9170   107.3160   194.9142 </r>
       <r>    -2.8542   102.3606   201.3350 </r>
       <r>    -2.7915   120.4022   208.8875 </r>
       <r>    -2.7288   146.8000   218.0958 </r>
       <r>    -2.6661   164.2408   228.3982 </r>
       <r>    -2.6033   164.1494   238.6948 </r>
       <r>    -2.5406   152.4918   248.2602 </r>
       <r>    -2.4779   144.9412   257.3519 </r>
       <r>    -2.4151   150.6594   266.8023 </r>
       <r>    -2.3524   162.3489   276.9860 </r>
       <r>    -2.2897   167.9792   287.5229 </r>
       <r>    -2.2270   169.0935   298.1296 </r>
       <r>    -2.1642   178.3161   309.3149 </r>
       <r>    -2.1015   198.9932   321.7971 </r>
       <r>    -2.0388   217.3656   335.4319 </r>
       <r>    -1.9761   216.4987   349.0122 </r>
       <r>    -1.9133   189.6522   360.9085 </r>
       <r>    -1.8506   141.6531   369.7940 </r>
       <r>    -1.7879    86.8449   375.2416 </r>
       <r>    -1.7251    43.6126   377.9773 </r>
       <r>    -1.6624    22.2531   379.3731 </r>
       <r>    -1.5997    18.1582   380.5121 </r>
       <r>    -1.5370    19.3662   381.7269 </r>
       <r>    -1.4742    18.1622   382.8662 </r>
       <r>    -1.4115    14.1710   383.7551 </r>
       <r>    -1.3488    10.0931   384.3882 </r>
       <r>    -1.2861     7.9303   384.8856 </r>
       <r>    -1.2233     8.5181   385.4200 </r>
       <r>    -1.1606    11.6552   386.1511 </r>
       <r>    -1.0979    15.5682   387.1276 </r>
       <r>    -1.0351    17.7270   388.2396 </r>
       <r>    -0.9724    17.0558   389.3094 </r>
       <r>    -0.9097    14.7410   390.2341 </r>
       <r>    -0.8470    12.8231   391.0385 </r>
       <r>    -0.7842    12.3467   391.8129 </r>
       <r>    -0.7215    12.6133   392.6041 </r>
       <r>    -0.6588    12.2184   393.3705 </r>
       <r>    -0.5961    10.9865   394.0597 </r>
       <r>    -0.5333    10.2018   394.6996 </r>
       <r>    -0.4706    10.4701   395.3564 </r>
       <r>    -0.4079    10.5212   396.0163 </r>
       <r>    -0.3451     9.3038   396.5999 </r>
       <r>    -0.2824     8.3281   397.1223 </r>
       <r>    -0.2197    10.1540   397.7593 </r>
       <r>    -0.1570    14.5779   398.6737 </r>
       <r>    -0.0942    18.0798   399.8078 </r>
       <r>    -0.0315    17.8000   400.9243 </r>
       <r>     0.0312    14.5728   401.8385 </r>
       <r>     0.0939    11.2051   402.5413 </r>
       <r>     0.1567     9.3562   403.1282 </r>
       <r>     0.2194     8.9700   403.6909 </r>
       <r>     0.2821     9.3571   404.2778 </r>
       <r>     0.3449     9.9053   404.8991 </r>
       <r>     0.4076    10.3473   405.5482 </r>
       <r>     0.4703    10.8414   406.2282 </r>
       <r>     0.5330    11.6724   406.9604 </r>
       <r>     0.5958    12.8565   407.7669 </r>
       <r>     0.6585    14.1899   408.6570 </r>
       <r>     0.7212    15.4201   409.6242 </r>
       <r>     0.7839    15.9842   410.6269 </r>
       <r>     0.8467    15.0330   411.5698 </r>
       <r>     0.9094    12.2967   412.3412 </r>
       <r>     0.9721     8.5663   412.8785 </r>
       <r>     1.0348     5.2085   413.2052 </r>
       <r>     1.0976     3.7613   413.4412 </r>
       <r>     1.1603     5.3477   413.7766 </r>
       <r>     1.2230     9.2141   414.3546 </r>
       <r>     1.2858    12.3760   415.1309 </r>
       <r>     1.3485    12.1117   415.8906 </r>
       <r>     1.4112     9.0401   416.4577 </r>
       <r>     1.4739     7.1044   416.9033 </r>
       <r>     1.5367     9.7208   417.5131 </r>
       <r>     1.5994    15.7279   418.4997 </r>
       <r>     1.6621    20.2269   419.7684 </r>
       <r>     1.7248    19.8328   421.0125 </r>
       <r>     1.7876    15.4939   421.9844 </r>
       <r>     1.8503     9.9294   422.6072 </r>
       <r>     1.9130     4.8157   422.9093 </r>
       <r>     1.9758     1.2419   422.9872 </r>
       <r>     2.0385     0.5881   423.0241 </r>
       <r>     2.1012     3.7072   423.2566 </r>
       <r>     2.1639     9.9553   423.8811 </r>
       <r>     2.2267    16.9619   424.9450 </r>
       <r>     2.2894    21.0609   426.2661 </r>
       <r>     2.3521    19.3880   427.4823 </r>
       <r>     2.4148    12.8230   428.2866 </r>
       <r>     2.4776     5.9487   428.6598 </r>
       <r>     2.5403     3.1864   428.8597 </r>
       <r>     2.6030     5.5492   429.2078 </r>
       <r>     2.6658    11.1515   429.9073 </r>
       <r>     2.7285    17.3097   430.9930 </r>
       <r>     2.7912    21.2759   432.3276 </r>
       <r>     2.8539    20.6320   433.6218 </r>
       <r>     2.9167    15.4543   434.5912 </r>
       <r>     2.9794     9.6480   435.1964 </r>
       <r>     3.0421     7.7009   435.6795 </r>
       <r>     3.1048    10.1563   436.3165 </r>
       <r>     3.1676    13.9388   437.1909 </r>
       <r>     3.2303    16.3412   438.2159 </r>
       <r>     3.2930    16.9409   439.2786 </r>
       <r>     3.3558    16.4983   440.3135 </r>
       <r>     3.4185    15.9114   441.3115 </r>
       <r>     3.4812    16.0658   442.3193 </r>
       <r>     3.5439    17.5647   443.4211 </r>
       <r>     3.6067    20.4767   444.7055 </r>
       <r>     3.6694    24.0782   446.2159 </r>
       <r>     3.7321    26.2859   447.8647 </r>
       <r>     3.7948    24.6501   449.4110 </r>
       <r>     3.8576    19.4494   450.6310 </r>
       <r>     3.9203    14.1882   451.5209 </r>
       <r>     3.9830    11.3986   452.2359 </r>
       <r>     4.0458    10.0212   452.8645 </r>
       <r>     4.1085     8.2931   453.3847 </r>
       <r>     4.1712     6.6292   453.8006 </r>
       <r>     4.2339     6.3975   454.2019 </r>
       <r>     4.2967     8.3089   454.7231 </r>
       <r>     4.3594    12.7037   455.5199 </r>
       <r>     4.4221    18.9042   456.7057 </r>
       <r>     4.4848    23.8882   458.2042 </r>
       <r>     4.5476    24.0991   459.7158 </r>
       <r>     4.6103    19.3863   460.9319 </r>
       <r>     4.6730    13.8182   461.7987 </r>
       <r>     4.7358    11.8000   462.5388 </r>
       <r>     4.7985    13.6379   463.3943 </r>
       <r>     4.8612    15.8592   464.3891 </r>
       <r>     4.9239    16.2758   465.4100 </r>
       <r>     4.9867    16.9060   466.4705 </r>
       <r>     5.0494    20.2193   467.7388 </r>
       <r>     5.1121    24.4215   469.2707 </r>
       <r>     5.1748    25.3575   470.8613 </r>
       <r>     5.2376    22.1654   472.2517 </r>
       <r>     5.3003    18.2920   473.3991 </r>
       <r>     5.3630    17.1489   474.4748 </r>
       <r>     5.4257    18.5870   475.6407 </r>
       <r>     5.4885    19.6211   476.8714 </r>
       <r>     5.5512    17.6705   477.9799 </r>
       <r>     5.6139    12.8998   478.7890 </r>
       <r>     5.6767     7.6414   479.2684 </r>
       <r>     5.7394     3.9402   479.5155 </r>
       <r>     5.8021     2.0914   479.6467 </r>
       <r>     5.8648     1.3481   479.7313 </r>
       <r>     5.9276     1.1356   479.8025 </r>
       <r>     5.9903     1.1705   479.8759 </r>
       <r>     6.0530     1.1125   479.9457 </r>
       <r>     6.1157     0.7512   479.9928 </r>
       <r>     6.1785     0.2679   480.0096 </r>
       <r>     6.2412    -0.0348   480.0074 </r>
       <r>     6.3039    -0.0930   480.0016 </r>
       <r>     6.3667    -0.0429   479.9989 </r>
       <r>     6.4294    -0.0011   479.9988 </r>
       <r>     6.4921     0.0093   479.9994 </r>
       <r>     6.5548     0.0060   479.9998 </r>
       <r>     6.6176     0.0023   480.0000 </r>
       <r>     6.6803     0.0006   480.0000 </r>
       <r>     6.7430     0.0001   480.0000 </r>
       <r>     6.8057     0.0000   480.0000 </r>
       <r>     6.8685     0.0000   480.0000 </r>
       <r>     6.9312     0.0000   480.0000 </r>
       <r>     6.9939     0.0000   480.0000 </r>
       <r>     7.0567     0.0000   480.0000 </r>
       <r>     7.1194     0.0000   480.0000 </r>
       <r>     7.1821     0.0000   480.0000 </r>
       <r>     7.2448     0.0000   480.0000 </r>
       <r>     7.3076     0.0000   480.0000 </r>
       <r>     7.3703     0.0000   480.0000 </r>
       <r>     7.4330     0.0000   480.0000 </r>
       <r>     7.4957     0.0000   480.0000 </r>
       <r>     7.5585     0.0000   480.0000 </r>
       <r>     7.6212     0.0000   480.0000 </r>
       <r>     7.6839     0.0000   480.0000 </r>
       <r>     7.7467     0.0000   480.0000 </r>
       <r>     7.8094     0.0000   480.0000 </r>
       <r>     7.8721     0.0000   480.0000 </r>
       <r>     7.9348     0.0000   480.0000 </r>
       <r>     7.9976     0.0000   480.0000 </r>
      </set>
     </set>
    </array>
   </total>
  </dos>
 </calculation>
 <structure name="finalpos" >
  <crystal>
   <varray name="basis" >
    <v>       7.70037500       0.00000000       0.00000000 </v>
    <v>       0.00000000       7.70037500       0.00000000 </v>
    <v>       0.00000000       0.00000000      22.25999800 </v>
   </varray>
   <i name="volume">   1319.92383604 </i>
   <varray name="rec_basis" >
    <v>       0.12986381       0.00000000       0.00000000 </v>
    <v>       0.00000000       0.12986381       0.00000000 </v>
    <v>       0.00000000       0.00000000       0.04492363 </v>
   </varray>
  </crystal>
  <varray name="positions" >
   <v>       0.16666708       0.16666708       0.00000000 </v>
   <v>       0.50000110       0.16666708       0.00000000 </v>
   <v>       0.83333526       0.16666708       0.00000000 </v>
   <v>       0.16666708       0.50000110       0.00000000 </v>
   <v>       0.50000110       0.50000110       0.00000000 </v>
   <v>       0.83333526       0.50000110       0.00000000 </v>
   <v>       0.16666708       0.83333526       0.00000000 </v>
   <v>       0.50000110       0.83333526       0.00000000 </v>
   <v>       0.83333526       0.83333526       0.00000000 </v>
   <v>       0.00000000       0.00000000       0.08153640 </v>
   <v>       0.33333416       0.00000000       0.08153640 </v>
   <v>       0.66666818       0.00000000       0.08153640 </v>
   <v>       0.00000000       0.33333416       0.08153640 </v>
   <v>       0.33333416       0.33333416       0.08153640 </v>
   <v>       0.66666818       0.33333416       0.08153640 </v>
   <v>       0.00000000       0.66666818       0.08153640 </v>
   <v>       0.33333416       0.66666818       0.08153640 </v>
   <v>       0.66666818       0.66666818       0.08153640 </v>
   <v>       0.16749132       0.16755171       0.16633056 </v>
   <v>       0.50023135       0.16854569       0.16659426 </v>
   <v>       0.83382822       0.17046235       0.16772441 </v>
   <v>       0.16775183       0.49998007       0.16359364 </v>
   <v>       0.49814808       0.49989721       0.16238928 </v>
   <v>       0.83170417       0.50060588       0.16558160 </v>
   <v>       0.16698693       0.83269425       0.16625136 </v>
   <v>       0.49959450       0.83143159       0.16657733 </v>
   <v>       0.83341318       0.83126432       0.16761520 </v>
   <v>       0.00132513       0.00111748       0.24773960 </v>
   <v>       0.33395555       0.99946665       0.24757473 </v>
   <v>       0.66657143       0.00089502       0.24789836 </v>
   <v>       0.00244988       0.33616610       0.24967743 </v>
   <v>       0.33544626       0.33422567       0.25154063 </v>
   <v>       0.66548343       0.33587572       0.25168187 </v>
   <v>       0.00045024       0.66549733       0.24947307 </v>
   <v>       0.33368154       0.66454491       0.25157729 </v>
   <v>       0.66443608       0.66598536       0.25129167 </v>
  </varray>
  <varray name="selective"  type="logical" >
   <v type="logical" >  F  F  F </v>
   <v type="logical" >  F  F  F </v>
   <v type="logical" >  F  F  F </v>
   <v type="logical" >  F  F  F </v>
   <v type="logical" >  F  F  F </v>
   <v type="logical" >  F  F  F </v>
   <v type="logical" >  F  F  F </v>
   <v type="logical" >  F  F  F </v>
   <v type="logical" >  F  F  F </v>
   <v type="logical" >  F  F  F </v>
   <v type="logical" >  F  F  F </v>
   <v type="logical" >  F  F  F </v>
   <v type="logical" >  F  F  F </v>
   <v type="logical" >  F  F  F </v>
   <v type="logical" >  F  F  F </v>
   <v type="logical" >  F  F  F </v>
   <v type="logical" >  F  F  F </v>
   <v type="logical" >  F  F  F </v>
   <v type="logical" >  T  T  T </v>
   <v type="logical" >  T  T  T </v>
   <v type="logical" >  T  T  T </v>
   <v type="logical" >  T  T  T </v>
   <v type="logical" >  T  T  T </v>
   <v type="logical" >  T  T  T </v>
   <v type="logical" >  T  T  T </v>
   <v type="logical" >  T  T  T </v>
   <v type="logical" >  T  T  T </v>
   <v type="logical" >  T  T  T </v>
   <v type="logical" >  T  T  T </v>
   <v type="logical" >  T  T  T </v>
   <v type="logical" >  T  T  T </v>
   <v type="logical" >  T  T  T </v>
   <v type="logical" >  T  T  T </v>
   <v type="logical" >  T  T  T </v>
   <v type="logical" >  T  T  T </v>
   <v type="logical" >  T  T  T </v>
  </varray>
  <nose>
   <v>      -3.00000000       0.00000000       0.00010000       0.00010000 </v>
  </nose>
 </structure>
</modeling>
